Ti  O                                   
   1.0000000000000000     
    10.4170290871430105    0.0000000000000000    0.0000000000000000
     0.0000000000000001   11.5769618460474284    0.0000000000000000
     0.0000000000000000    0.0000000000000000   28.1399377865907212
   Ti   O 
    48    96
Selective dynamics
Direct
  0.8039923561556819  0.8333333333333357  0.2930095484955899   F   F   F
  0.5883006364514003  0.6666666666666643  0.3248542333424211   F   F   F
  0.3039923561556819  0.6666666666666643  0.2930095484955899   F   F   F
  0.0883006364514003  0.8333333333333357  0.3248542333424211   F   F   F
  0.9417997040495358  0.8333333505972147  0.4211928820722258   T   T   T
  0.7244213984742972  0.6666666682489465  0.4516655517694838   T   T   T
  0.4417997635874022  0.6666666541230357  0.4211928845344595   T   T   T
  0.2244213264666451  0.8333333417720086  0.4516655526001785   T   T   T
  0.0817371231841137  0.8333333502169036  0.5494116693582720   T   T   T
  0.8625564577125845  0.6666666991113495  0.5779191693824727   T   T   T
  0.5817372096848032  0.6666666433699211  0.5494116623088385   T   T   T
  0.3625565217861911  0.8333333402510420  0.5779191617857989   T   T   T
  0.2275450299495775  0.8333333044227433  0.6799823840253334   T   T   T
  0.0006973093660790  0.6666666501020713  0.7026829255816551   T   T   T
  0.7275450642471052  0.6666666482782879  0.6799823955413267   T   T   T
  0.5006974978447369  0.8333333500474740  0.7026829197590821   T   T   T
  0.8039923561556819  0.1666666666666643  0.2930095484955899   F   F   F
  0.5883006364514003  0.0000000000000000  0.3248542333424211   F   F   F
  0.3039923561556819  0.0000000000000000  0.2930095484955899   F   F   F
  0.0883006364514003  0.1666666666666643  0.3248542333424211   F   F   F
  0.9417997470041676  0.1666666502688807  0.4211928868228286   T   T   T
  0.7244213929076249 -0.0000000015866092  0.4516655602947711   T   T   T
  0.4417997433225409  0.0000000235165181  0.4211928760444018   T   T   T
  0.2244213444942382  0.1666666559861262  0.4516655470403517   T   T   T
  0.0817371911389771  0.1666666861333208  0.5494116815493311   T   T   T
  0.8625564503246496 -0.0000000001962373  0.5779191845092876   T   T   T
  0.5817371818603012 -0.0000000283069903  0.5494116905966854   T   T   T
  0.3625565301942733  0.1666666353189775  0.5779191886654449   T   T   T
  0.2275451289013717  0.1666666566066937  0.6799824041824765   T   T   T
  0.0006973551710819 -0.0000000119873216  0.7026829328898651   T   T   T
  0.7275450494765116  0.0000000054650717  0.6799824160226957   T   T   T
  0.5006975700694710  0.1666666390188661  0.7026829329541827   T   T   T
  0.8039923561556819  0.5000000000000000  0.2930095484955899   F   F   F
  0.5883006364514003  0.3333333333333357  0.3248542333424211   F   F   F
  0.3039923561556819  0.3333333333333357  0.2930095484955899   F   F   F
  0.0883006364514003  0.5000000000000000  0.3248542333424211   F   F   F
  0.9417997541615480  0.5000000155301436  0.4211928868287972   T   T   T
  0.7244214306729179  0.3333333245589247  0.4516655610002506   T   T   T
  0.4417997343548683  0.3333333021579057  0.4211928713874749   T   T   T
  0.2244213200449607  0.4999999959236905  0.4516655571332548   T   T   T
  0.0817371392899741  0.4999999992598018  0.5494116590154454   T   T   T
  0.8625564769922508  0.3333333342913857  0.5779191713390170   T   T   T
  0.5817372507945241  0.3333333367399152  0.5494116793495144   T   T   T
  0.3625564661831064  0.4999999835204595  0.5779191713031642   T   T   T
  0.2275450473025254  0.5000000015192436  0.6799824240704199   T   T   T
  0.0006973646002535  0.3333333479315737  0.7026829226719348   T   T   T
  0.7275450851791438  0.3333333228446054  0.6799824037587152   T   T   T
  0.5006975027157269  0.4999999907042727  0.7026829380474269   T   T   T
  0.4833778397623831  0.6666666666666643  0.2665251095037604   F   F   F
  0.9833778397623831  0.8333333333333357  0.2665251095037604   F   F   F
  0.9089151528446919  0.8333333333333357  0.3513386723342578   F   F   F
  0.6246068725489735  0.8333333333333357  0.3194939874874265   F   F   F
  0.7676861200581016  0.6666666666666643  0.2983697943505916   F   F   F
  0.6206109609452568  0.6666666666666643  0.3939038488910853   F   F   F
  0.4089151528446919  0.6666666666666643  0.3513386723342578   F   F   F
  0.1246068725489735  0.6666666666666643  0.3194939874874265   F   F   F
  0.2676861200581016  0.8333333333333357  0.2983697943505916   F   F   F
  0.1206109609452568  0.8333333333333357  0.3939038488910853   F   F   F
  0.0468680843785908  0.8333333859025190  0.4793003268162002   T   T   T
  0.7620099822636914  0.8333333571502841  0.4470066055807305   T   T   T
  0.9051524171084847  0.6666666933347944  0.4259080550781823   T   T   T
  0.7592574002010901  0.6666666582614450  0.5209789302187235   T   T   T
  0.5468680617179450  0.6666666630428632  0.4793003167165264   T   T   T
  0.2620099935349222  0.6666666408018569  0.4470065975358383   T   T   T
  0.4051524265134959  0.8333333394903486  0.4259080665567281   T   T   T
  0.2592574103367367  0.8333333569549378  0.5209789365521761   T   T   T
  0.1893515649753327  0.8333333352847693  0.6073001906739121   T   T   T
  0.9008962581409844  0.8333333588809470  0.5740515616880496   T   T   T
  0.0452282099558493  0.6666666531425168  0.5534122437928009   T   T   T
  0.9067777136264767  0.6666666494380945  0.6470071095372086   T   T   T
  0.6893515361679005  0.6666666825826709  0.6073001784000170   T   T   T
  0.4008962340002006  0.6666666735880185  0.5740515557567272   T   T   T
  0.5452282059483734  0.8333333611748301  0.5534122302695891   T   T   T
  0.4067777359646046  0.8333333542732160  0.6470070954731206   T   T   T
  0.3420618338991394  0.8333333248227959  0.7328099594605346   T   T   T
  0.0494592079627730  0.8333333192201807  0.7096831506502319   T   T   T
  0.1886167552682998  0.6666666856486217  0.6815058848113771   T   T   T
  0.8420619068374375  0.6666666446083196  0.7328099421442639   T   T   T
  0.5494591765361780  0.6666666768322352  0.7096831594363519   T   T   T
  0.6886167682075692  0.8333333373523937  0.6815058984305857   T   T   T
  0.4833778397623831  0.0000000000000000  0.2665251095037604   F   F   F
  0.9833778397623831  0.1666666666666643  0.2665251095037604   F   F   F
  0.9089151528446919  0.1666666666666643  0.3513386723342578   F   F   F
  0.6246068725489735  0.1666666666666643  0.3194939874874265   F   F   F
  0.7676861200581016  0.0000000000000000  0.2983697943505916   F   F   F
  0.6206109609452568  0.0000000000000000  0.3939038488910853   F   F   F
  0.4089151528446919  0.0000000000000000  0.3513386723342578   F   F   F
  0.1246068725489735  0.0000000000000000  0.3194939874874265   F   F   F
  0.2676861200581016  0.1666666666666643  0.2983697943505916   F   F   F
  0.1206109609452568  0.1666666666666643  0.3939038488910853   F   F   F
  0.0468681098348179  0.1666666812595780  0.4793003361181102   T   T   T
  0.7620099930738324  0.1666666475975299  0.4470066043638377   T   T   T
  0.9051524053260305  0.0000000256129321  0.4259080840963199   T   T   T
  0.7592573692648290  0.0000000388109661  0.5209789447734315   T   T   T
  0.5468680738793090 -0.0000000027281467  0.4793003386167309   T   T   T
  0.2620099921390288 -0.0000000078583837  0.4470066024489425   T   T   T
  0.4051524405581668  0.1666666945165655  0.4259080737632046   T   T   T
  0.2592574188443099  0.1666666548920172  0.5209789396479183   T   T   T
  0.1893515703386113  0.1666666940594097  0.6073001911508793   T   T   T
  0.9008962989665018  0.1666666652000063  0.5740515754642145   T   T   T
  0.0452282251461618  0.0000000196521136  0.5534122561466539   T   T   T
  0.9067777363415231  0.0000000331435043  0.6470071508617583   T   T   T
  0.6893515152906167 -0.0000000331847088  0.6073001881272223   T   T   T
  0.4008962904406242  0.0000000009819635  0.5740515528404674   T   T   T
  0.5452282384753573  0.1666666348699799  0.5534122455545173   T   T   T
  0.4067777536222691  0.1666666046648167  0.6470071260374030   T   T   T
  0.3420618227175447  0.1666666666308854  0.7328099773783113   T   T   T
  0.0494592316588958  0.1666666638329076  0.7096831902263174   T   T   T
  0.1886167679067319 -0.0000000472994284  0.6815058924549702   T   T   T
  0.8420618813384785  0.0000000004350137  0.7328099732887253   T   T   T
  0.5494592192186627  0.0000000099526453  0.7096831848690230   T   T   T
  0.6886167703422931  0.1666666593424354  0.6815059128561671   T   T   T
  0.4833778397623831  0.3333333333333357  0.2665251095037604   F   F   F
  0.9833778397623831  0.5000000000000000  0.2665251095037604   F   F   F
  0.9089151528446919  0.5000000000000000  0.3513386723342578   F   F   F
  0.6246068725489735  0.5000000000000000  0.3194939874874265   F   F   F
  0.7676861200581016  0.3333333333333357  0.2983697943505916   F   F   F
  0.6206109609452568  0.3333333333333357  0.3939038488910853   F   F   F
  0.4089151528446919  0.3333333333333357  0.3513386723342578   F   F   F
  0.1246068725489735  0.3333333333333357  0.3194939874874265   F   F   F
  0.2676861200581016  0.5000000000000000  0.2983697943505916   F   F   F
  0.1206109609452568  0.5000000000000000  0.3939038488910853   F   F   F
  0.0468680973762935  0.5000000106014248  0.4793003121147083   T   T   T
  0.7620099664346883  0.4999999911137792  0.4470065855714845   T   T   T
  0.9051524174324406  0.3333333335355719  0.4259080575823571   T   T   T
  0.7592573906077871  0.3333333308015642  0.5209789379969979   T   T   T
  0.5468680800376913  0.3333332957994717  0.4793003304294980   T   T   T
  0.2620100129166020  0.3333333337090652  0.4470065978131656   T   T   T
  0.4051524384546447  0.5000000214572483  0.4259080644307338   T   T   T
  0.2592574050862743  0.4999999737623708  0.5209789353817958   T   T   T
  0.1893515475037991  0.5000000050083001  0.6073001859295883   T   T   T
  0.9008962574104616  0.5000000209362386  0.5740515474414023   T   T   T
  0.0452282395480979  0.3333333377848533  0.5534122483287156   T   T   T
  0.9067777839700747  0.3333333392057127  0.6470071292267020   T   T   T
  0.6893515469068551  0.3333333146466460  0.6073001789531688   T   T   T
  0.4008962829216125  0.3333333287008655  0.5740515668035894   T   T   T
  0.5452282237733880  0.4999999766754337  0.5534122620993099   T   T   T
  0.4067776912069809  0.4999999780391017  0.6470071265174012   T   T   T
  0.3420618464740126  0.4999999863591293  0.7328099665397705   T   T   T
  0.0494592363129575  0.4999999689975531  0.7096831754998214   T   T   T
  0.1886167911535384  0.3333333258984499  0.6815059014890004   T   T   T
  0.8420619287310451  0.3333333345576844  0.7328099628897217   T   T   T
  0.5494592180572988  0.3333333126496831  0.7096831776563687   T   T   T
  0.6886167492340356  0.5000000036864817  0.6815058847976375   T   T   T

  0.00000000E+00  0.00000000E+00  0.00000000E+00
  0.00000000E+00  0.00000000E+00  0.00000000E+00
  0.00000000E+00  0.00000000E+00  0.00000000E+00
  0.00000000E+00  0.00000000E+00  0.00000000E+00
  0.00000000E+00  0.00000000E+00  0.00000000E+00
  0.00000000E+00  0.00000000E+00  0.00000000E+00
  0.00000000E+00  0.00000000E+00  0.00000000E+00
  0.00000000E+00  0.00000000E+00  0.00000000E+00
  0.00000000E+00  0.00000000E+00  0.00000000E+00
  0.00000000E+00  0.00000000E+00  0.00000000E+00
  0.00000000E+00  0.00000000E+00  0.00000000E+00
  0.00000000E+00  0.00000000E+00  0.00000000E+00
  0.00000000E+00  0.00000000E+00  0.00000000E+00
  0.00000000E+00  0.00000000E+00  0.00000000E+00
  0.00000000E+00  0.00000000E+00  0.00000000E+00
  0.00000000E+00  0.00000000E+00  0.00000000E+00
  0.00000000E+00  0.00000000E+00  0.00000000E+00
  0.00000000E+00  0.00000000E+00  0.00000000E+00
  0.00000000E+00  0.00000000E+00  0.00000000E+00
  0.00000000E+00  0.00000000E+00  0.00000000E+00
  0.00000000E+00  0.00000000E+00  0.00000000E+00
  0.00000000E+00  0.00000000E+00  0.00000000E+00
  0.00000000E+00  0.00000000E+00  0.00000000E+00
  0.00000000E+00  0.00000000E+00  0.00000000E+00
  0.00000000E+00  0.00000000E+00  0.00000000E+00
  0.00000000E+00  0.00000000E+00  0.00000000E+00
  0.00000000E+00  0.00000000E+00  0.00000000E+00
  0.00000000E+00  0.00000000E+00  0.00000000E+00
  0.00000000E+00  0.00000000E+00  0.00000000E+00
  0.00000000E+00  0.00000000E+00  0.00000000E+00
  0.00000000E+00  0.00000000E+00  0.00000000E+00
  0.00000000E+00  0.00000000E+00  0.00000000E+00
  0.00000000E+00  0.00000000E+00  0.00000000E+00
  0.00000000E+00  0.00000000E+00  0.00000000E+00
  0.00000000E+00  0.00000000E+00  0.00000000E+00
  0.00000000E+00  0.00000000E+00  0.00000000E+00
  0.00000000E+00  0.00000000E+00  0.00000000E+00
  0.00000000E+00  0.00000000E+00  0.00000000E+00
  0.00000000E+00  0.00000000E+00  0.00000000E+00
  0.00000000E+00  0.00000000E+00  0.00000000E+00
  0.00000000E+00  0.00000000E+00  0.00000000E+00
  0.00000000E+00  0.00000000E+00  0.00000000E+00
  0.00000000E+00  0.00000000E+00  0.00000000E+00
  0.00000000E+00  0.00000000E+00  0.00000000E+00
  0.00000000E+00  0.00000000E+00  0.00000000E+00
  0.00000000E+00  0.00000000E+00  0.00000000E+00
  0.00000000E+00  0.00000000E+00  0.00000000E+00
  0.00000000E+00  0.00000000E+00  0.00000000E+00
  0.00000000E+00  0.00000000E+00  0.00000000E+00
  0.00000000E+00  0.00000000E+00  0.00000000E+00
  0.00000000E+00  0.00000000E+00  0.00000000E+00
  0.00000000E+00  0.00000000E+00  0.00000000E+00
  0.00000000E+00  0.00000000E+00  0.00000000E+00
  0.00000000E+00  0.00000000E+00  0.00000000E+00
  0.00000000E+00  0.00000000E+00  0.00000000E+00
  0.00000000E+00  0.00000000E+00  0.00000000E+00
  0.00000000E+00  0.00000000E+00  0.00000000E+00
  0.00000000E+00  0.00000000E+00  0.00000000E+00
  0.00000000E+00  0.00000000E+00  0.00000000E+00
  0.00000000E+00  0.00000000E+00  0.00000000E+00
  0.00000000E+00  0.00000000E+00  0.00000000E+00
  0.00000000E+00  0.00000000E+00  0.00000000E+00
  0.00000000E+00  0.00000000E+00  0.00000000E+00
  0.00000000E+00  0.00000000E+00  0.00000000E+00
  0.00000000E+00  0.00000000E+00  0.00000000E+00
  0.00000000E+00  0.00000000E+00  0.00000000E+00
  0.00000000E+00  0.00000000E+00  0.00000000E+00
  0.00000000E+00  0.00000000E+00  0.00000000E+00
  0.00000000E+00  0.00000000E+00  0.00000000E+00
  0.00000000E+00  0.00000000E+00  0.00000000E+00
  0.00000000E+00  0.00000000E+00  0.00000000E+00
  0.00000000E+00  0.00000000E+00  0.00000000E+00
  0.00000000E+00  0.00000000E+00  0.00000000E+00
  0.00000000E+00  0.00000000E+00  0.00000000E+00
  0.00000000E+00  0.00000000E+00  0.00000000E+00
  0.00000000E+00  0.00000000E+00  0.00000000E+00
  0.00000000E+00  0.00000000E+00  0.00000000E+00
  0.00000000E+00  0.00000000E+00  0.00000000E+00
  0.00000000E+00  0.00000000E+00  0.00000000E+00
  0.00000000E+00  0.00000000E+00  0.00000000E+00
  0.00000000E+00  0.00000000E+00  0.00000000E+00
  0.00000000E+00  0.00000000E+00  0.00000000E+00
  0.00000000E+00  0.00000000E+00  0.00000000E+00
  0.00000000E+00  0.00000000E+00  0.00000000E+00
  0.00000000E+00  0.00000000E+00  0.00000000E+00
  0.00000000E+00  0.00000000E+00  0.00000000E+00
  0.00000000E+00  0.00000000E+00  0.00000000E+00
  0.00000000E+00  0.00000000E+00  0.00000000E+00
  0.00000000E+00  0.00000000E+00  0.00000000E+00
  0.00000000E+00  0.00000000E+00  0.00000000E+00
  0.00000000E+00  0.00000000E+00  0.00000000E+00
  0.00000000E+00  0.00000000E+00  0.00000000E+00
  0.00000000E+00  0.00000000E+00  0.00000000E+00
  0.00000000E+00  0.00000000E+00  0.00000000E+00
  0.00000000E+00  0.00000000E+00  0.00000000E+00
  0.00000000E+00  0.00000000E+00  0.00000000E+00
  0.00000000E+00  0.00000000E+00  0.00000000E+00
  0.00000000E+00  0.00000000E+00  0.00000000E+00
  0.00000000E+00  0.00000000E+00  0.00000000E+00
  0.00000000E+00  0.00000000E+00  0.00000000E+00
  0.00000000E+00  0.00000000E+00  0.00000000E+00
  0.00000000E+00  0.00000000E+00  0.00000000E+00
  0.00000000E+00  0.00000000E+00  0.00000000E+00
  0.00000000E+00  0.00000000E+00  0.00000000E+00
  0.00000000E+00  0.00000000E+00  0.00000000E+00
  0.00000000E+00  0.00000000E+00  0.00000000E+00
  0.00000000E+00  0.00000000E+00  0.00000000E+00
  0.00000000E+00  0.00000000E+00  0.00000000E+00
  0.00000000E+00  0.00000000E+00  0.00000000E+00
  0.00000000E+00  0.00000000E+00  0.00000000E+00
  0.00000000E+00  0.00000000E+00  0.00000000E+00
  0.00000000E+00  0.00000000E+00  0.00000000E+00
  0.00000000E+00  0.00000000E+00  0.00000000E+00
  0.00000000E+00  0.00000000E+00  0.00000000E+00
  0.00000000E+00  0.00000000E+00  0.00000000E+00
  0.00000000E+00  0.00000000E+00  0.00000000E+00
  0.00000000E+00  0.00000000E+00  0.00000000E+00
  0.00000000E+00  0.00000000E+00  0.00000000E+00
  0.00000000E+00  0.00000000E+00  0.00000000E+00
  0.00000000E+00  0.00000000E+00  0.00000000E+00
  0.00000000E+00  0.00000000E+00  0.00000000E+00
  0.00000000E+00  0.00000000E+00  0.00000000E+00
  0.00000000E+00  0.00000000E+00  0.00000000E+00
  0.00000000E+00  0.00000000E+00  0.00000000E+00
  0.00000000E+00  0.00000000E+00  0.00000000E+00
  0.00000000E+00  0.00000000E+00  0.00000000E+00
  0.00000000E+00  0.00000000E+00  0.00000000E+00
  0.00000000E+00  0.00000000E+00  0.00000000E+00
  0.00000000E+00  0.00000000E+00  0.00000000E+00
  0.00000000E+00  0.00000000E+00  0.00000000E+00
  0.00000000E+00  0.00000000E+00  0.00000000E+00
  0.00000000E+00  0.00000000E+00  0.00000000E+00
  0.00000000E+00  0.00000000E+00  0.00000000E+00
  0.00000000E+00  0.00000000E+00  0.00000000E+00
  0.00000000E+00  0.00000000E+00  0.00000000E+00
  0.00000000E+00  0.00000000E+00  0.00000000E+00
  0.00000000E+00  0.00000000E+00  0.00000000E+00
  0.00000000E+00  0.00000000E+00  0.00000000E+00
  0.00000000E+00  0.00000000E+00  0.00000000E+00
  0.00000000E+00  0.00000000E+00  0.00000000E+00
  0.00000000E+00  0.00000000E+00  0.00000000E+00
  0.00000000E+00  0.00000000E+00  0.00000000E+00
  0.00000000E+00  0.00000000E+00  0.00000000E+00
  0.00000000E+00  0.00000000E+00  0.00000000E+00
