Ti  O                                   
   1.0000000000000000     
    10.2370697643315403    0.0000000000000000    0.0000000000000000
     0.0000000000000001   11.3083412109704273    0.0000000000000000
     0.0000000000000000    0.0000000000000000   24.8429189244826496
   Ti   O 
    48    96
Selective dynamics
Direct
  0.8093565347365370  0.8333333333333357  0.2707601362417478   F   F   F
  0.5932521859106501  0.6666666666666643  0.3060278075891674   F   F   F
  0.3093565347365370  0.6666666666666643  0.2707601362417478   F   F   F
  0.0932521859106501  0.8333333333333357  0.3060278075891674   F   F   F
  0.9457059742782544  0.8333360955791334  0.4132630721961484   T   T   T
  0.7270392302283041  0.6666594446383449  0.4458762214135875   T   T   T
  0.4457059918380030  0.6666638761409933  0.4132630717730617   T   T   T
  0.2270392233252723  0.8333405452163549  0.4458762189483568   T   T   T
  0.0862076130852702  0.8333434633809316  0.5557048589506103   T   T   T
  0.8651004551555987  0.6666578484870214  0.5852985956949498   T   T   T
  0.5862076307623630  0.6666565525278875  0.5557048624489973   T   T   T
  0.3651004761150764  0.8333421681486659  0.5852985933132570   T   T   T
  0.2331992351723554  0.8333421808526257  0.7007236971385028   T   T   T
  0.0048579113646548  0.6666574705411210  0.7236939665655476   T   T   T
  0.7331992681241847  0.6666578123778129  0.7007237179507331   T   T   T
  0.5048579420598908  0.8333425248204055  0.7236939681723417   T   T   T
  0.8093565347365370  0.1666666666666643  0.2707601362417478   F   F   F
  0.5932521859106501  0.0000000000000000  0.3060278075891674   F   F   F
  0.3093565347365370  0.0000000000000000  0.2707601362417478   F   F   F
  0.0932521859106501  0.1666666666666643  0.3060278075891674   F   F   F
  0.9457059559178147  0.1666639191910692  0.4132630720934272   T   T   T
  0.7270400249809288  0.0000000151554212  0.4458765700001462   T   T   T
  0.4457091960279116  0.0000000178939010  0.4132620473333170   T   T   T
  0.2270392388145560  0.1666594755789849  0.4458762135786156   T   T   T
  0.0862076321389520  0.1666565301205269  0.5557048617744376   T   T   T
  0.8650913349999620 -0.0000000092861704  0.5852997308018244   T   T   T
  0.5862133717245738 -0.0000000053419400  0.5557041232442458   T   T   T
  0.3651004793134612  0.1666578364040018  0.5852986042345141   T   T   T
  0.2331992909658165  0.1666578282459599  0.7007237157455130   T   T   T
  0.0048510834724717  0.0000000075385301  0.7236971891494409   T   T   T
  0.7331997835629860  0.0000000050838757  0.7007227752365333   T   T   T
  0.5048578769140231  0.1666574853389089  0.7236939717368122   T   T   T
  0.8093565347365370  0.5000000000000000  0.2707601362417478   F   F   F
  0.5932521859106501  0.3333333333333357  0.3060278075891674   F   F   F
  0.3093565347365370  0.3333333333333357  0.2707601362417478   F   F   F
  0.0932521859106501  0.5000000000000000  0.3060278075891674   F   F   F
  0.9457091831512519  0.4999999758423834  0.4132620395629568   T   T   T
  0.7270392534995636  0.3333405302967300  0.4458762099947486   T   T   T
  0.4457059619238761  0.3333360928415864  0.4132630716429200   T   T   T
  0.2270400335507433  0.4999999705887023  0.4458765606174101   T   T   T
  0.0862133843823103  0.5000000138895465  0.5557041242094584   T   T   T
  0.8651004689379250  0.3333421659520100  0.5852985997273076   T   T   T
  0.5862076163761617  0.3333434582060056  0.5557048599774874   T   T   T
  0.3650913563171723  0.5000000055475312  0.5852997326544558   T   T   T
  0.2331997726137928  0.4999999815604687  0.7007227642275273   T   T   T
  0.0048579048391892  0.3333425176262900  0.7236939624483651   T   T   T
  0.7331992812090696  0.3333421833939358  0.7007237154517737   T   T   T
  0.5048510793732145  0.4999999887008548  0.7236971855682920   T   T   T
  0.4885421107218733  0.6666666666666643  0.2415175132293754   F   F   F
  0.9885421107218733  0.8333333333333357  0.2415175132293754   F   F   F
  0.9140666099253139  0.8333333333333357  0.3352704306015397   F   F   F
  0.6301709587512079  0.8333333333333357  0.3000027592541201   F   F   F
  0.7724377618959863  0.6666666666666643  0.2767851845767950   F   F   F
  0.6241247154183185  0.6666666666666643  0.3825881986190680   F   F   F
  0.4140666099253139  0.6666666666666643  0.3352704306015397   F   F   F
  0.1301709587512079  0.6666666666666643  0.3000027592541201   F   F   F
  0.2724377618959863  0.8333333333333357  0.2767851845767950   F   F   F
  0.1241247154183185  0.8333333333333357  0.3825881986190680   F   F   F
  0.0508888557303812  0.8333667369698754  0.4771592799323162   T   T   T
  0.7658174859748582  0.8333308786380337  0.4410975558680772   T   T   T
  0.9084999449832728  0.6666652556177217  0.4181567574965914   T   T   T
  0.7625611211356249  0.6665840638811815  0.5230897165534032   T   T   T
  0.5508888426174879  0.6666332569444985  0.4771592795098366   T   T   T
  0.2658174776983394  0.6666691338707882  0.4410975492501011   T   T   T
  0.4084999492841043  0.8333347526375393  0.4181567613777556   T   T   T
  0.2625611129992799  0.8334159238463937  0.5230897035303997   T   T   T
  0.1942316475929085  0.8333651711240594  0.6189163752462793   T   T   T
  0.9048516835683125  0.8333303287960460  0.5816433146490784   T   T   T
  0.0494281139047893  0.6666713026321399  0.5597416999874310   T   T   T
  0.9112338729856202  0.6666259843182272  0.6627553547373141   T   T   T
  0.6942316442739966  0.6666348233921431  0.6189163787786840   T   T   T
  0.4048516941337469  0.6666696889569734  0.5816433171430939   T   T   T
  0.5494281135771223  0.8333286898826783  0.5597416953754314   T   T   T
  0.4112338821582757  0.8333740248763110  0.6627553481696702   T   T   T
  0.3478405988307868  0.8333642783983877  0.7585189095063993   T   T   T
  0.0545399561129350  0.8333362697982230  0.7320877442671088   T   T   T
  0.1946655968232805  0.6666643180031049  0.7016945249570561   T   T   T
  0.8478406243231340  0.6666357239526227  0.7585189029606006   T   T   T
  0.5545399449785831  0.6666637415276896  0.7320877544112763   T   T   T
  0.6946655886291460  0.8333356802182356  0.7016945264413182   T   T   T
  0.4885421107218733  0.0000000000000000  0.2415175132293754   F   F   F
  0.9885421107218733  0.1666666666666643  0.2415175132293754   F   F   F
  0.9140666099253139  0.1666666666666643  0.3352704306015397   F   F   F
  0.6301709587512079  0.1666666666666643  0.3000027592541201   F   F   F
  0.7724377618959863  0.0000000000000000  0.2767851845767950   F   F   F
  0.6241247154183185  0.0000000000000000  0.3825881986190680   F   F   F
  0.4140666099253139  0.0000000000000000  0.3352704306015397   F   F   F
  0.1301709587512079  0.0000000000000000  0.3000027592541201   F   F   F
  0.2724377618959863  0.1666666666666643  0.2767851845767950   F   F   F
  0.1241247154183185  0.1666666666666643  0.3825881986190680   F   F   F
  0.0508888516871441  0.1666332651992753  0.4771592923582257   T   T   T
  0.7658174825700413  0.1666691031829938  0.4410975542713788   T   T   T
  0.9084777817482398 -0.0000000111537557  0.4181377611846521   T   T   T
  0.7625670612337643  0.0000000065294779  0.5230895484548879   T   T   T
  0.5508945519090993 -0.0000000103343062  0.4771605608338055   T   T   T
  0.2658001664550506 -0.0000000256985558  0.4410686955731195   T   T   T
  0.4084999523868507  0.1666652331296328  0.4181567591312792   T   T   T
  0.2625611036576344  0.1665840625786980  0.5230897166289705   T   T   T
  0.1942316401304575  0.1666348217138435  0.6189163699353525   T   T   T
  0.9048516851221420  0.1666696869780347  0.5816433082698821   T   T   T
  0.0493986771260834  0.0000000118938104  0.5597516587136718   T   T   T
  0.9112438731566406  0.0000000083277709  0.6627542975878976   T   T   T
  0.6942336643418316  0.0000000078694500  0.6189181447495420   T   T   T
  0.4048964868316395  0.0000000012042385  0.5816532016512230   T   T   T
  0.5494281068761715  0.1666713236783016  0.5597416884670423   T   T   T
  0.4112338901621530  0.1666259516382297  0.6627553458002023   T   T   T
  0.3478406077420071  0.1666357010022479  0.7585189020513916   T   T   T
  0.0545399516210422  0.1666637036213112  0.7320877468410119   T   T   T
  0.1946629949905245 -0.0000000217268900  0.7017020501343501   T   T   T
  0.8478297954035269 -0.0000000192923643  0.7585215813916648   T   T   T
  0.5545587181850236 -0.0000000287580692  0.7320951698809954   T   T   T
  0.6946656107752519  0.1666642981339529  0.7016945369852172   T   T   T
  0.4885421107218733  0.3333333333333357  0.2415175132293754   F   F   F
  0.9885421107218733  0.5000000000000000  0.2415175132293754   F   F   F
  0.9140666099253139  0.5000000000000000  0.3352704306015397   F   F   F
  0.6301709587512079  0.5000000000000000  0.3000027592541201   F   F   F
  0.7724377618959863  0.3333333333333357  0.2767851845767950   F   F   F
  0.6241247154183185  0.3333333333333357  0.3825881986190680   F   F   F
  0.4140666099253139  0.3333333333333357  0.3352704306015397   F   F   F
  0.1301709587512079  0.3333333333333357  0.3000027592541201   F   F   F
  0.2724377618959863  0.5000000000000000  0.2767851845767950   F   F   F
  0.1241247154183185  0.5000000000000000  0.3825881986190680   F   F   F
  0.0508945642487801  0.4999999888447684  0.4771605760259250   T   T   T
  0.7658001659598345  0.5000000104366700  0.4410686989696004   T   T   T
  0.9084999467186833  0.3333347546492698  0.4181567555833195   T   T   T
  0.7625611275919627  0.3334159394123414  0.5230897160928725   T   T   T
  0.5508888517628158  0.3333667401969911  0.4771592859029293   T   T   T
  0.2658174863528732  0.3333308864615754  0.4410975536678040   T   T   T
  0.4084777883238140  0.5000000084498935  0.4181377667005353   T   T   T
  0.2625670524181608  0.5000000125249320  0.5230895483060733   T   T   T
  0.1942336579307886  0.5000000090742311  0.6189181306090747   T   T   T
  0.9048964946482559  0.4999999931398588  0.5816531992060606   T   T   T
  0.0494281232580244  0.3333286919311082  0.5597417070914348   T   T   T
  0.9112338717100132  0.3333740077169200  0.6627553331306579   T   T   T
  0.6942316492167452  0.3333651630317282  0.6189163685274169   T   T   T
  0.4048517013471062  0.3333303146779791  0.5816433193127799   T   T   T
  0.5493986773896354  0.4999999875709278  0.5597516503432501   T   T   T
  0.4112438936486937  0.5000000173768946  0.6627542992467490   T   T   T
  0.3478297827234959  0.4999999983522327  0.7585215801429832   T   T   T
  0.0545587154507907  0.5000000078188411  0.7320951501060757   T   T   T
  0.1946656095787714  0.3333356858328663  0.7016945214879438   T   T   T
  0.8478406143598494  0.3333642849139375  0.7585188905447062   T   T   T
  0.5545399343478064  0.3333362794081087  0.7320877406480742   T   T   T
  0.6946630009856062  0.5000000145233422  0.7017020590471365   T   T   T

  0.00000000E+00  0.00000000E+00  0.00000000E+00
  0.00000000E+00  0.00000000E+00  0.00000000E+00
  0.00000000E+00  0.00000000E+00  0.00000000E+00
  0.00000000E+00  0.00000000E+00  0.00000000E+00
  0.00000000E+00  0.00000000E+00  0.00000000E+00
  0.00000000E+00  0.00000000E+00  0.00000000E+00
  0.00000000E+00  0.00000000E+00  0.00000000E+00
  0.00000000E+00  0.00000000E+00  0.00000000E+00
  0.00000000E+00  0.00000000E+00  0.00000000E+00
  0.00000000E+00  0.00000000E+00  0.00000000E+00
  0.00000000E+00  0.00000000E+00  0.00000000E+00
  0.00000000E+00  0.00000000E+00  0.00000000E+00
  0.00000000E+00  0.00000000E+00  0.00000000E+00
  0.00000000E+00  0.00000000E+00  0.00000000E+00
  0.00000000E+00  0.00000000E+00  0.00000000E+00
  0.00000000E+00  0.00000000E+00  0.00000000E+00
  0.00000000E+00  0.00000000E+00  0.00000000E+00
  0.00000000E+00  0.00000000E+00  0.00000000E+00
  0.00000000E+00  0.00000000E+00  0.00000000E+00
  0.00000000E+00  0.00000000E+00  0.00000000E+00
  0.00000000E+00  0.00000000E+00  0.00000000E+00
  0.00000000E+00  0.00000000E+00  0.00000000E+00
  0.00000000E+00  0.00000000E+00  0.00000000E+00
  0.00000000E+00  0.00000000E+00  0.00000000E+00
  0.00000000E+00  0.00000000E+00  0.00000000E+00
  0.00000000E+00  0.00000000E+00  0.00000000E+00
  0.00000000E+00  0.00000000E+00  0.00000000E+00
  0.00000000E+00  0.00000000E+00  0.00000000E+00
  0.00000000E+00  0.00000000E+00  0.00000000E+00
  0.00000000E+00  0.00000000E+00  0.00000000E+00
  0.00000000E+00  0.00000000E+00  0.00000000E+00
  0.00000000E+00  0.00000000E+00  0.00000000E+00
  0.00000000E+00  0.00000000E+00  0.00000000E+00
  0.00000000E+00  0.00000000E+00  0.00000000E+00
  0.00000000E+00  0.00000000E+00  0.00000000E+00
  0.00000000E+00  0.00000000E+00  0.00000000E+00
  0.00000000E+00  0.00000000E+00  0.00000000E+00
  0.00000000E+00  0.00000000E+00  0.00000000E+00
  0.00000000E+00  0.00000000E+00  0.00000000E+00
  0.00000000E+00  0.00000000E+00  0.00000000E+00
  0.00000000E+00  0.00000000E+00  0.00000000E+00
  0.00000000E+00  0.00000000E+00  0.00000000E+00
  0.00000000E+00  0.00000000E+00  0.00000000E+00
  0.00000000E+00  0.00000000E+00  0.00000000E+00
  0.00000000E+00  0.00000000E+00  0.00000000E+00
  0.00000000E+00  0.00000000E+00  0.00000000E+00
  0.00000000E+00  0.00000000E+00  0.00000000E+00
  0.00000000E+00  0.00000000E+00  0.00000000E+00
  0.00000000E+00  0.00000000E+00  0.00000000E+00
  0.00000000E+00  0.00000000E+00  0.00000000E+00
  0.00000000E+00  0.00000000E+00  0.00000000E+00
  0.00000000E+00  0.00000000E+00  0.00000000E+00
  0.00000000E+00  0.00000000E+00  0.00000000E+00
  0.00000000E+00  0.00000000E+00  0.00000000E+00
  0.00000000E+00  0.00000000E+00  0.00000000E+00
  0.00000000E+00  0.00000000E+00  0.00000000E+00
  0.00000000E+00  0.00000000E+00  0.00000000E+00
  0.00000000E+00  0.00000000E+00  0.00000000E+00
  0.00000000E+00  0.00000000E+00  0.00000000E+00
  0.00000000E+00  0.00000000E+00  0.00000000E+00
  0.00000000E+00  0.00000000E+00  0.00000000E+00
  0.00000000E+00  0.00000000E+00  0.00000000E+00
  0.00000000E+00  0.00000000E+00  0.00000000E+00
  0.00000000E+00  0.00000000E+00  0.00000000E+00
  0.00000000E+00  0.00000000E+00  0.00000000E+00
  0.00000000E+00  0.00000000E+00  0.00000000E+00
  0.00000000E+00  0.00000000E+00  0.00000000E+00
  0.00000000E+00  0.00000000E+00  0.00000000E+00
  0.00000000E+00  0.00000000E+00  0.00000000E+00
  0.00000000E+00  0.00000000E+00  0.00000000E+00
  0.00000000E+00  0.00000000E+00  0.00000000E+00
  0.00000000E+00  0.00000000E+00  0.00000000E+00
  0.00000000E+00  0.00000000E+00  0.00000000E+00
  0.00000000E+00  0.00000000E+00  0.00000000E+00
  0.00000000E+00  0.00000000E+00  0.00000000E+00
  0.00000000E+00  0.00000000E+00  0.00000000E+00
  0.00000000E+00  0.00000000E+00  0.00000000E+00
  0.00000000E+00  0.00000000E+00  0.00000000E+00
  0.00000000E+00  0.00000000E+00  0.00000000E+00
  0.00000000E+00  0.00000000E+00  0.00000000E+00
  0.00000000E+00  0.00000000E+00  0.00000000E+00
  0.00000000E+00  0.00000000E+00  0.00000000E+00
  0.00000000E+00  0.00000000E+00  0.00000000E+00
  0.00000000E+00  0.00000000E+00  0.00000000E+00
  0.00000000E+00  0.00000000E+00  0.00000000E+00
  0.00000000E+00  0.00000000E+00  0.00000000E+00
  0.00000000E+00  0.00000000E+00  0.00000000E+00
  0.00000000E+00  0.00000000E+00  0.00000000E+00
  0.00000000E+00  0.00000000E+00  0.00000000E+00
  0.00000000E+00  0.00000000E+00  0.00000000E+00
  0.00000000E+00  0.00000000E+00  0.00000000E+00
  0.00000000E+00  0.00000000E+00  0.00000000E+00
  0.00000000E+00  0.00000000E+00  0.00000000E+00
  0.00000000E+00  0.00000000E+00  0.00000000E+00
  0.00000000E+00  0.00000000E+00  0.00000000E+00
  0.00000000E+00  0.00000000E+00  0.00000000E+00
  0.00000000E+00  0.00000000E+00  0.00000000E+00
  0.00000000E+00  0.00000000E+00  0.00000000E+00
  0.00000000E+00  0.00000000E+00  0.00000000E+00
  0.00000000E+00  0.00000000E+00  0.00000000E+00
  0.00000000E+00  0.00000000E+00  0.00000000E+00
  0.00000000E+00  0.00000000E+00  0.00000000E+00
  0.00000000E+00  0.00000000E+00  0.00000000E+00
  0.00000000E+00  0.00000000E+00  0.00000000E+00
  0.00000000E+00  0.00000000E+00  0.00000000E+00
  0.00000000E+00  0.00000000E+00  0.00000000E+00
  0.00000000E+00  0.00000000E+00  0.00000000E+00
  0.00000000E+00  0.00000000E+00  0.00000000E+00
  0.00000000E+00  0.00000000E+00  0.00000000E+00
  0.00000000E+00  0.00000000E+00  0.00000000E+00
  0.00000000E+00  0.00000000E+00  0.00000000E+00
  0.00000000E+00  0.00000000E+00  0.00000000E+00
  0.00000000E+00  0.00000000E+00  0.00000000E+00
  0.00000000E+00  0.00000000E+00  0.00000000E+00
  0.00000000E+00  0.00000000E+00  0.00000000E+00
  0.00000000E+00  0.00000000E+00  0.00000000E+00
  0.00000000E+00  0.00000000E+00  0.00000000E+00
  0.00000000E+00  0.00000000E+00  0.00000000E+00
  0.00000000E+00  0.00000000E+00  0.00000000E+00
  0.00000000E+00  0.00000000E+00  0.00000000E+00
  0.00000000E+00  0.00000000E+00  0.00000000E+00
  0.00000000E+00  0.00000000E+00  0.00000000E+00
  0.00000000E+00  0.00000000E+00  0.00000000E+00
  0.00000000E+00  0.00000000E+00  0.00000000E+00
  0.00000000E+00  0.00000000E+00  0.00000000E+00
  0.00000000E+00  0.00000000E+00  0.00000000E+00
  0.00000000E+00  0.00000000E+00  0.00000000E+00
  0.00000000E+00  0.00000000E+00  0.00000000E+00
  0.00000000E+00  0.00000000E+00  0.00000000E+00
  0.00000000E+00  0.00000000E+00  0.00000000E+00
  0.00000000E+00  0.00000000E+00  0.00000000E+00
  0.00000000E+00  0.00000000E+00  0.00000000E+00
  0.00000000E+00  0.00000000E+00  0.00000000E+00
  0.00000000E+00  0.00000000E+00  0.00000000E+00
  0.00000000E+00  0.00000000E+00  0.00000000E+00
  0.00000000E+00  0.00000000E+00  0.00000000E+00
  0.00000000E+00  0.00000000E+00  0.00000000E+00
  0.00000000E+00  0.00000000E+00  0.00000000E+00
  0.00000000E+00  0.00000000E+00  0.00000000E+00
  0.00000000E+00  0.00000000E+00  0.00000000E+00
  0.00000000E+00  0.00000000E+00  0.00000000E+00
  0.00000000E+00  0.00000000E+00  0.00000000E+00
  0.00000000E+00  0.00000000E+00  0.00000000E+00
  0.00000000E+00  0.00000000E+00  0.00000000E+00
