Ti  O                                   
   1.0000000000000000     
    10.4949378195251839    0.0000000000000000    0.0000000000000000
     0.0000000000000001   11.5178767149069348    0.0000000000000000
     0.0000000000000000    0.0000000000000000   28.0920276520418994
   Ti   O 
    48    96
Selective dynamics
Direct
  0.8150633920163841  0.8333333333333357  0.2933079093704336   F   F   F
  0.5985200541689721  0.6666666666666643  0.3251066925442103   F   F   F
  0.3150633920163841  0.6666666666666643  0.2933079093704336   F   F   F
  0.0985200541689721  0.8333333333333357  0.3251066925442103   F   F   F
  0.9484401213338196  0.8333333382770058  0.4221084731351041   T   T   T
  0.7288190899075979  0.6666666594431793  0.4509875856477180   T   T   T
  0.4484401470361410  0.6666666855643135  0.4221084814350597   T   T   T
  0.2288191528370623  0.8333333367127539  0.4509876019310640   T   T   T
  0.0866450108837285  0.8333333841431987  0.5509536473397777   T   T   T
  0.8639490053610106  0.6666666814188774  0.5769039230833887   T   T   T
  0.5866447996363693  0.6666666499755377  0.5509536290448747   T   T   T
  0.3639490361111124  0.8333332372861332  0.5769039708831698   T   T   T
  0.2304907149512003  0.8333331340680725  0.6826266413545258   T   T   T
  0.0010052814875506  0.6666666636895882  0.7020864660086386   T   T   T
  0.7304906354894708  0.6666666731131824  0.6826266576300875   T   T   T
  0.5010045772902195  0.8333334077683876  0.7020863291706452   T   T   T
  0.8150633920163841  0.1666666666666643  0.2933079093704336   F   F   F
  0.5985200541689721  0.0000000000000000  0.3251066925442103   F   F   F
  0.3150633920163841  0.0000000000000000  0.2933079093704336   F   F   F
  0.0985200541689721  0.1666666666666643  0.3251066925442103   F   F   F
  0.9484401432908940  0.1666666612446034  0.4221084862612458   T   T   T
  0.7288191576743889 -0.0000000071115424  0.4509876081710373   T   T   T
  0.4484401084435261  0.0000000075193787  0.4221084761744794   T   T   T
  0.2288191022512021  0.1666666690363216  0.4509875976970996   T   T   T
  0.0866448539594462  0.1666666470318550  0.5509536300573141   T   T   T
  0.8639489945645983  0.0000001057729590  0.5769039654304642   T   T   T
  0.5866450006899285 -0.0000000633111443  0.5509536402794656   T   T   T
  0.3639489723671261  0.1666666636828916  0.5769039256700998   T   T   T
  0.2304905993849731  0.1666666913020858  0.6826266489529693   T   T   T
  0.0010045198643686 -0.0000000429143824  0.7020863153112666   T   T   T
  0.7304907261838123  0.0000001582537836  0.6826266461936791   T   T   T
  0.5010051837672882  0.1666666659649553  0.7020864409364738   T   T   T
  0.8150633920163841  0.5000000000000000  0.2933079093704336   F   F   F
  0.5985200541689721  0.3333333333333357  0.3251066925442103   F   F   F
  0.3150633920163841  0.3333333333333357  0.2933079093704336   F   F   F
  0.0985200541689721  0.5000000000000000  0.3251066925442103   F   F   F
  0.9484401212578283  0.4999999962738369  0.4221084689555754   T   T   T
  0.7288191366300084  0.3333333268874452  0.4509876108900432   T   T   T
  0.4484401278908673  0.3333333779852368  0.4221084751619666   T   T   T
  0.2288191591510588  0.5000000077046519  0.4509876033702652   T   T   T
  0.0866450114825210  0.4999999467149876  0.5509536506530390   T   T   T
  0.8639490113208971  0.3333332490826295  0.5769039577054508   T   T   T
  0.5866450188991416  0.3333333396095938  0.5509536425519919   T   T   T
  0.3639490339444043  0.5000000968877916  0.5769039759684308   T   T   T
  0.2304907585886253  0.5000001758180878  0.6826266466306640   T   T   T
  0.0010046234231186  0.3333333784705167  0.7020863396388265   T   T   T
  0.7304907084820211  0.3333331646030211  0.6826266480343359   T   T   T
  0.5010045214936508  0.4999999225774077  0.7020863177566018   T   T   T
  0.4943534893691321  0.6666666666666643  0.2669796603113781   F   F   F
  0.9943534893691321  0.8333333333333357  0.2669796603113781   F   F   F
  0.9192299568162241  0.8333333333333357  0.3514349416032658   F   F   F
  0.6357732946636361  0.8333333333333357  0.3196361584294891   F   F   F
  0.7778101515217202  0.6666666666666643  0.2987784434851548   F   F   F
  0.6281801379794771  0.6666666666666643  0.3941747930064992   F   F   F
  0.4192299568162241  0.6666666666666643  0.3514349416032658   F   F   F
  0.1357732946636361  0.6666666666666643  0.3196361584294891   F   F   F
  0.2778101515217202  0.8333333333333357  0.2987784434851548   F   F   F
  0.1281801379794771  0.8333333333333357  0.3941747930064992   F   F   F
  0.0539160485562727  0.8333333277024839  0.4791917701758603   T   T   T
  0.7691642417465523  0.8333333284254043  0.4471470166926163   T   T   T
  0.9112917278937414  0.6666666556460167  0.4262765051587769   T   T   T
  0.7643660574365847  0.6666666536736137  0.5212931842006697   T   T   T
  0.5539160628623542  0.6666666727018088  0.4791917667109383   T   T   T
  0.2691642223033277  0.6666666659211870  0.4471470224170002   T   T   T
  0.4112917091287343  0.8333333497198179  0.4262765036962617   T   T   T
  0.2643659302867034  0.8333333393295862  0.5212931310993627   T   T   T
  0.1947016268641149  0.8333333523303803  0.6072894524697598   T   T   T
  0.9061692730310320  0.8333332214405414  0.5742567888398958   T   T   T
  0.0497911573979376  0.6666666631109791  0.5539124228778568   T   T   T
  0.9110022916947507  0.6666666610680815  0.6477328694913815   T   T   T
  0.6947017732653987  0.6666666711611927  0.6072895055175442   T   T   T
  0.4061693217060888  0.6666666655541741  0.5742567825961433   T   T   T
  0.5497912137883382  0.8333333248492750  0.5539124085590220   T   T   T
  0.4110026049072997  0.8333333408470721  0.6477330590433983   T   T   T
  0.3456162901173568  0.8333333611086862  0.7335916972038388   T   T   T
  0.0525008789563266  0.8333333763794532  0.7100296100032784   T   T   T
  0.1928585783568481  0.6666666772214279  0.6825185160107388   T   T   T
  0.8456160561247057  0.6666666675237840  0.7335917291401690   T   T   T
  0.5525010033909608  0.6666666701909703  0.7100296231890880   T   T   T
  0.6928586201251866  0.8333331720271278  0.6825185120541284   T   T   T
  0.4943534893691321  0.0000000000000000  0.2669796603113781   F   F   F
  0.9943534893691321  0.1666666666666643  0.2669796603113781   F   F   F
  0.9192299568162241  0.1666666666666643  0.3514349416032658   F   F   F
  0.6357732946636361  0.1666666666666643  0.3196361584294891   F   F   F
  0.7778101515217202  0.0000000000000000  0.2987784434851548   F   F   F
  0.6281801379794771  0.0000000000000000  0.3941747930064992   F   F   F
  0.4192299568162241  0.0000000000000000  0.3514349416032658   F   F   F
  0.1357732946636361  0.0000000000000000  0.3196361584294891   F   F   F
  0.2778101515217202  0.1666666666666643  0.2987784434851548   F   F   F
  0.1281801379794771  0.1666666666666643  0.3941747930064992   F   F   F
  0.0539160418667804  0.1666666725564578  0.4791917529786259   T   T   T
  0.7691642448581586  0.1666666610198041  0.4471470099935394   T   T   T
  0.9112917190208923  0.0000000008182325  0.4262765066161314   T   T   T
  0.7643659353106856 -0.0000000033003063  0.5212931314476775   T   T   T
  0.5539160363670074  0.0000000018142099  0.4791917636687420   T   T   T
  0.2691642376295781 -0.0000000057443601  0.4471470131255023   T   T   T
  0.4112917305724156  0.1666666678526714  0.4262765028988219   T   T   T
  0.2643660409004323  0.1666666672704301  0.5212931782928087   T   T   T
  0.1947017454808923  0.1666666691076089  0.6072894905636754   T   T   T
  0.9061693090722973  0.1666666762557490  0.5742567766962645   T   T   T
  0.0497912204361416 -0.0000000269738962  0.5539124067551223   T   T   T
  0.9110026096725371 -0.0000000009383535  0.6477330641657019   T   T   T
  0.6947016249877530 -0.0000000197608878  0.6072894456732647   T   T   T
  0.4061692702858535  0.0000000928803033  0.5742567883784551   T   T   T
  0.5497911673153316  0.1666666707173406  0.5539124225957464   T   T   T
  0.4110023334005544  0.1666666550267753  0.6477328895465986   T   T   T
  0.3456160707180738  0.1666666653010182  0.7335917324068305   T   T   T
  0.0525009828317907  0.1666666701040127  0.7100296173505117   T   T   T
  0.1928586122631314  0.0000001107031557  0.6825185081230836   T   T   T
  0.8456162981708705  0.0000000051949546  0.7335916855198057   T   T   T
  0.5525008866893150 -0.0000000501810911  0.7100296166231660   T   T   T
  0.6928585634736311  0.1666666808409906  0.6825184971514373   T   T   T
  0.4943534893691321  0.3333333333333357  0.2669796603113781   F   F   F
  0.9943534893691321  0.5000000000000000  0.2669796603113781   F   F   F
  0.9192299568162241  0.5000000000000000  0.3514349416032658   F   F   F
  0.6357732946636361  0.5000000000000000  0.3196361584294891   F   F   F
  0.7778101515217202  0.3333333333333357  0.2987784434851548   F   F   F
  0.6281801379794771  0.3333333333333357  0.3941747930064992   F   F   F
  0.4192299568162241  0.3333333333333357  0.3514349416032658   F   F   F
  0.1357732946636361  0.3333333333333357  0.3196361584294891   F   F   F
  0.2778101515217202  0.5000000000000000  0.2987784434851548   F   F   F
  0.1281801379794771  0.5000000000000000  0.3941747930064992   F   F   F
  0.0539160475555492  0.5000000050853848  0.4791917713904082   T   T   T
  0.7691642496464592  0.4999999991324976  0.4471470167999176   T   T   T
  0.9112917309725120  0.3333333396609942  0.4262765035799294   T   T   T
  0.7643659503429914  0.3333333279010917  0.5212931379807109   T   T   T
  0.5539160466320139  0.3333333216550652  0.4791917679273066   T   T   T
  0.2691642345289278  0.3333333458423074  0.4471470164397802   T   T   T
  0.4112917149746210  0.4999999897025167  0.4262765085736261   T   T   T
  0.2643659270007890  0.4999999869407866  0.5212931287639773   T   T   T
  0.1947016344017433  0.4999999878984924  0.6072894503936778   T   T   T
  0.9061692755478034  0.5000001132544827  0.5742567951946614   T   T   T
  0.0497912165438132  0.3333333600668733  0.5539124109779290   T   T   T
  0.9110025839774432  0.3333333389540223  0.6477330471230444   T   T   T
  0.6947016473841120  0.3333333462096613  0.6072894565400240   T   T   T
  0.4061692784468785  0.3333332308900283  0.5742567907886242   T   T   T
  0.5497912246457136  0.4999999980524921  0.5539124029702001   T   T   T
  0.4110026458290788  0.4999999855762466  0.6477330758106499   T   T   T
  0.3456163308183011  0.4999999859517288  0.7335916869907743   T   T   T
  0.0525008830633355  0.4999999526760412  0.7100296201061413   T   T   T
  0.1928586097413151  0.3333332135983625  0.6825185105555999   T   T   T
  0.8456162939304218  0.3333333272893680  0.7335916924127706   T   T   T
  0.5525009030536782  0.3333333782131175  0.7100296177924903   T   T   T
  0.6928586290793708  0.5000001460444503  0.6825185149173401   T   T   T

  0.00000000E+00  0.00000000E+00  0.00000000E+00
  0.00000000E+00  0.00000000E+00  0.00000000E+00
  0.00000000E+00  0.00000000E+00  0.00000000E+00
  0.00000000E+00  0.00000000E+00  0.00000000E+00
  0.00000000E+00  0.00000000E+00  0.00000000E+00
  0.00000000E+00  0.00000000E+00  0.00000000E+00
  0.00000000E+00  0.00000000E+00  0.00000000E+00
  0.00000000E+00  0.00000000E+00  0.00000000E+00
  0.00000000E+00  0.00000000E+00  0.00000000E+00
  0.00000000E+00  0.00000000E+00  0.00000000E+00
  0.00000000E+00  0.00000000E+00  0.00000000E+00
  0.00000000E+00  0.00000000E+00  0.00000000E+00
  0.00000000E+00  0.00000000E+00  0.00000000E+00
  0.00000000E+00  0.00000000E+00  0.00000000E+00
  0.00000000E+00  0.00000000E+00  0.00000000E+00
  0.00000000E+00  0.00000000E+00  0.00000000E+00
  0.00000000E+00  0.00000000E+00  0.00000000E+00
  0.00000000E+00  0.00000000E+00  0.00000000E+00
  0.00000000E+00  0.00000000E+00  0.00000000E+00
  0.00000000E+00  0.00000000E+00  0.00000000E+00
  0.00000000E+00  0.00000000E+00  0.00000000E+00
  0.00000000E+00  0.00000000E+00  0.00000000E+00
  0.00000000E+00  0.00000000E+00  0.00000000E+00
  0.00000000E+00  0.00000000E+00  0.00000000E+00
  0.00000000E+00  0.00000000E+00  0.00000000E+00
  0.00000000E+00  0.00000000E+00  0.00000000E+00
  0.00000000E+00  0.00000000E+00  0.00000000E+00
  0.00000000E+00  0.00000000E+00  0.00000000E+00
  0.00000000E+00  0.00000000E+00  0.00000000E+00
  0.00000000E+00  0.00000000E+00  0.00000000E+00
  0.00000000E+00  0.00000000E+00  0.00000000E+00
  0.00000000E+00  0.00000000E+00  0.00000000E+00
  0.00000000E+00  0.00000000E+00  0.00000000E+00
  0.00000000E+00  0.00000000E+00  0.00000000E+00
  0.00000000E+00  0.00000000E+00  0.00000000E+00
  0.00000000E+00  0.00000000E+00  0.00000000E+00
  0.00000000E+00  0.00000000E+00  0.00000000E+00
  0.00000000E+00  0.00000000E+00  0.00000000E+00
  0.00000000E+00  0.00000000E+00  0.00000000E+00
  0.00000000E+00  0.00000000E+00  0.00000000E+00
  0.00000000E+00  0.00000000E+00  0.00000000E+00
  0.00000000E+00  0.00000000E+00  0.00000000E+00
  0.00000000E+00  0.00000000E+00  0.00000000E+00
  0.00000000E+00  0.00000000E+00  0.00000000E+00
  0.00000000E+00  0.00000000E+00  0.00000000E+00
  0.00000000E+00  0.00000000E+00  0.00000000E+00
  0.00000000E+00  0.00000000E+00  0.00000000E+00
  0.00000000E+00  0.00000000E+00  0.00000000E+00
  0.00000000E+00  0.00000000E+00  0.00000000E+00
  0.00000000E+00  0.00000000E+00  0.00000000E+00
  0.00000000E+00  0.00000000E+00  0.00000000E+00
  0.00000000E+00  0.00000000E+00  0.00000000E+00
  0.00000000E+00  0.00000000E+00  0.00000000E+00
  0.00000000E+00  0.00000000E+00  0.00000000E+00
  0.00000000E+00  0.00000000E+00  0.00000000E+00
  0.00000000E+00  0.00000000E+00  0.00000000E+00
  0.00000000E+00  0.00000000E+00  0.00000000E+00
  0.00000000E+00  0.00000000E+00  0.00000000E+00
  0.00000000E+00  0.00000000E+00  0.00000000E+00
  0.00000000E+00  0.00000000E+00  0.00000000E+00
  0.00000000E+00  0.00000000E+00  0.00000000E+00
  0.00000000E+00  0.00000000E+00  0.00000000E+00
  0.00000000E+00  0.00000000E+00  0.00000000E+00
  0.00000000E+00  0.00000000E+00  0.00000000E+00
  0.00000000E+00  0.00000000E+00  0.00000000E+00
  0.00000000E+00  0.00000000E+00  0.00000000E+00
  0.00000000E+00  0.00000000E+00  0.00000000E+00
  0.00000000E+00  0.00000000E+00  0.00000000E+00
  0.00000000E+00  0.00000000E+00  0.00000000E+00
  0.00000000E+00  0.00000000E+00  0.00000000E+00
  0.00000000E+00  0.00000000E+00  0.00000000E+00
  0.00000000E+00  0.00000000E+00  0.00000000E+00
  0.00000000E+00  0.00000000E+00  0.00000000E+00
  0.00000000E+00  0.00000000E+00  0.00000000E+00
  0.00000000E+00  0.00000000E+00  0.00000000E+00
  0.00000000E+00  0.00000000E+00  0.00000000E+00
  0.00000000E+00  0.00000000E+00  0.00000000E+00
  0.00000000E+00  0.00000000E+00  0.00000000E+00
  0.00000000E+00  0.00000000E+00  0.00000000E+00
  0.00000000E+00  0.00000000E+00  0.00000000E+00
  0.00000000E+00  0.00000000E+00  0.00000000E+00
  0.00000000E+00  0.00000000E+00  0.00000000E+00
  0.00000000E+00  0.00000000E+00  0.00000000E+00
  0.00000000E+00  0.00000000E+00  0.00000000E+00
  0.00000000E+00  0.00000000E+00  0.00000000E+00
  0.00000000E+00  0.00000000E+00  0.00000000E+00
  0.00000000E+00  0.00000000E+00  0.00000000E+00
  0.00000000E+00  0.00000000E+00  0.00000000E+00
  0.00000000E+00  0.00000000E+00  0.00000000E+00
  0.00000000E+00  0.00000000E+00  0.00000000E+00
  0.00000000E+00  0.00000000E+00  0.00000000E+00
  0.00000000E+00  0.00000000E+00  0.00000000E+00
  0.00000000E+00  0.00000000E+00  0.00000000E+00
  0.00000000E+00  0.00000000E+00  0.00000000E+00
  0.00000000E+00  0.00000000E+00  0.00000000E+00
  0.00000000E+00  0.00000000E+00  0.00000000E+00
  0.00000000E+00  0.00000000E+00  0.00000000E+00
  0.00000000E+00  0.00000000E+00  0.00000000E+00
  0.00000000E+00  0.00000000E+00  0.00000000E+00
  0.00000000E+00  0.00000000E+00  0.00000000E+00
  0.00000000E+00  0.00000000E+00  0.00000000E+00
  0.00000000E+00  0.00000000E+00  0.00000000E+00
  0.00000000E+00  0.00000000E+00  0.00000000E+00
  0.00000000E+00  0.00000000E+00  0.00000000E+00
  0.00000000E+00  0.00000000E+00  0.00000000E+00
  0.00000000E+00  0.00000000E+00  0.00000000E+00
  0.00000000E+00  0.00000000E+00  0.00000000E+00
  0.00000000E+00  0.00000000E+00  0.00000000E+00
  0.00000000E+00  0.00000000E+00  0.00000000E+00
  0.00000000E+00  0.00000000E+00  0.00000000E+00
  0.00000000E+00  0.00000000E+00  0.00000000E+00
  0.00000000E+00  0.00000000E+00  0.00000000E+00
  0.00000000E+00  0.00000000E+00  0.00000000E+00
  0.00000000E+00  0.00000000E+00  0.00000000E+00
  0.00000000E+00  0.00000000E+00  0.00000000E+00
  0.00000000E+00  0.00000000E+00  0.00000000E+00
  0.00000000E+00  0.00000000E+00  0.00000000E+00
  0.00000000E+00  0.00000000E+00  0.00000000E+00
  0.00000000E+00  0.00000000E+00  0.00000000E+00
  0.00000000E+00  0.00000000E+00  0.00000000E+00
  0.00000000E+00  0.00000000E+00  0.00000000E+00
  0.00000000E+00  0.00000000E+00  0.00000000E+00
  0.00000000E+00  0.00000000E+00  0.00000000E+00
  0.00000000E+00  0.00000000E+00  0.00000000E+00
  0.00000000E+00  0.00000000E+00  0.00000000E+00
  0.00000000E+00  0.00000000E+00  0.00000000E+00
  0.00000000E+00  0.00000000E+00  0.00000000E+00
  0.00000000E+00  0.00000000E+00  0.00000000E+00
  0.00000000E+00  0.00000000E+00  0.00000000E+00
  0.00000000E+00  0.00000000E+00  0.00000000E+00
  0.00000000E+00  0.00000000E+00  0.00000000E+00
  0.00000000E+00  0.00000000E+00  0.00000000E+00
  0.00000000E+00  0.00000000E+00  0.00000000E+00
  0.00000000E+00  0.00000000E+00  0.00000000E+00
  0.00000000E+00  0.00000000E+00  0.00000000E+00
  0.00000000E+00  0.00000000E+00  0.00000000E+00
  0.00000000E+00  0.00000000E+00  0.00000000E+00
  0.00000000E+00  0.00000000E+00  0.00000000E+00
  0.00000000E+00  0.00000000E+00  0.00000000E+00
  0.00000000E+00  0.00000000E+00  0.00000000E+00
  0.00000000E+00  0.00000000E+00  0.00000000E+00
  0.00000000E+00  0.00000000E+00  0.00000000E+00
  0.00000000E+00  0.00000000E+00  0.00000000E+00
  0.00000000E+00  0.00000000E+00  0.00000000E+00
