Ti  O                                   
   1.0000000000000000     
    13.0039804035994724    0.0000000000000000    0.0000000000000000
     0.0000000000000000   11.8303781147918627    0.0000000000000000
     0.0000000000000000    0.0000000000000000   30.5527488130632072
   Ti   O 
    80   160
Selective dynamics
Direct
  0.7500000000000000  0.6250000000000000  0.2871880451221571   F   F   F
  0.0000000000000000  0.7500000000000000  0.2871880451221571   F   F   F
  0.0000000000000000  0.6250000000000000  0.3935940225610750   F   F   F
  0.7500000000000000  0.7500000000000000  0.3935940225610750   F   F   F
  0.7500000000000000  0.6250000000000000  0.5000000000000000   F   F   F
  0.0000000000000000  0.7500000000000000  0.5000000000000000   F   F   F
 -0.0000000448820790  0.6250000019162970  0.6041305561114856   T   T   T
  0.7499999639648196  0.7500000031906664  0.6107776761518995   T   T   T
  0.7500000055055682  0.6250000151056073  0.7204887217691274   T   T   T
  0.0000000069382506  0.7499999986350263  0.7081373560712535   T   T   T
  0.7500000000000000  0.8750000000000000  0.2871880451221571   F   F   F
  0.0000000000000000  0.0000000000000000  0.2871880451221571   F   F   F
  0.0000000000000000  0.8750000000000000  0.3935940225610750   F   F   F
  0.7500000000000000  0.0000000000000000  0.3935940225610750   F   F   F
  0.7500000000000000  0.8750000000000000  0.5000000000000000   F   F   F
  0.0000000000000000  0.0000000000000000  0.5000000000000000   F   F   F
 -0.0000000123497072  0.8750000096321422  0.6041305661419784   T   T   T
  0.7500000071054231  0.0000000046220161  0.6107776977275998   T   T   T
  0.7500000077371423  0.8750000029548541  0.7204887154948547   T   T   T
  0.0000000127878816  0.0000000019349031  0.7081373689224495   T   T   T
  0.7500000000000000  0.1250000000000000  0.2871880451221571   F   F   F
  0.0000000000000000  0.2500000000000000  0.2871880451221571   F   F   F
  0.0000000000000000  0.1250000000000000  0.3935940225610750   F   F   F
  0.7500000000000000  0.2500000000000000  0.3935940225610750   F   F   F
  0.7500000000000000  0.1250000000000000  0.5000000000000000   F   F   F
  0.0000000000000000  0.2500000000000000  0.5000000000000000   F   F   F
  0.0000000247057026  0.1250000084752561  0.6041305618923247   T   T   T
  0.7500000347398048  0.2500000177982180  0.6107776746387062   T   T   T
  0.7499999999081065  0.1250000117157541  0.7204887158885805   T   T   T
 -0.0000000247774396  0.2499999924863140  0.7081373601016188   T   T   T
  0.7500000000000000  0.3750000000000000  0.2871880451221571   F   F   F
  0.0000000000000000  0.5000000000000000  0.2871880451221571   F   F   F
  0.0000000000000000  0.3750000000000000  0.3935940225610750   F   F   F
  0.7500000000000000  0.5000000000000000  0.3935940225610750   F   F   F
  0.7500000000000000  0.3750000000000000  0.5000000000000000   F   F   F
  0.0000000000000000  0.5000000000000000  0.5000000000000000   F   F   F
  0.0000000443168392  0.3749999843561399  0.6041305573964366   T   T   T
  0.7499999941171998  0.4999999815718482  0.6107776962077279   T   T   T
  0.7499999907220641  0.3749999936959415  0.7204887227335857   T   T   T
  0.0000000027603314  0.4999999930027302  0.7081373727216930   T   T   T
  0.2500000000000000  0.6250000000000000  0.2871880451221571   F   F   F
  0.5000000000000000  0.7500000000000000  0.2871880451221571   F   F   F
  0.5000000000000000  0.6250000000000000  0.3935940225610750   F   F   F
  0.2500000000000000  0.7500000000000000  0.3935940225610750   F   F   F
  0.2500000000000000  0.6250000000000000  0.5000000000000000   F   F   F
  0.5000000000000000  0.7500000000000000  0.5000000000000000   F   F   F
  0.4999999912875389  0.6249999977190448  0.6041305577034204   T   T   T
  0.2499999638456766  0.7499999978325452  0.6107776890942718   T   T   T
  0.2500000054313674  0.6250000036268450  0.7204887213682051   T   T   T
  0.5000000013660514  0.7500000081288691  0.7081373593161225   T   T   T
  0.2500000000000000  0.8750000000000000  0.2871880451221571   F   F   F
  0.5000000000000000  0.0000000000000000  0.2871880451221571   F   F   F
  0.5000000000000000  0.8750000000000000  0.3935940225610750   F   F   F
  0.2500000000000000  0.0000000000000000  0.3935940225610750   F   F   F
  0.2500000000000000  0.8750000000000000  0.5000000000000000   F   F   F
  0.5000000000000000  0.0000000000000000  0.5000000000000000   F   F   F
  0.4999999812157649  0.8750000056502303  0.6041305587438005   T   T   T
  0.2500000236574448  0.0000000064451758  0.6107777019311043   T   T   T
  0.2500000060735758  0.8749999948597921  0.7204887245556243   T   T   T
  0.5000000162011421  0.0000000055637886  0.7081373614654493   T   T   T
  0.2500000000000000  0.1250000000000000  0.2871880451221571   F   F   F
  0.5000000000000000  0.2500000000000000  0.2871880451221571   F   F   F
  0.5000000000000000  0.1250000000000000  0.3935940225610750   F   F   F
  0.2500000000000000  0.2500000000000000  0.3935940225610750   F   F   F
  0.2500000000000000  0.1250000000000000  0.5000000000000000   F   F   F
  0.5000000000000000  0.2500000000000000  0.5000000000000000   F   F   F
  0.5000000658938702  0.1250000067623450  0.6041305620966854   T   T   T
  0.2500000564105063  0.2499999776002370  0.6107776787601414   T   T   T
  0.2500000045555177  0.1250000089407324  0.7204887245668384   T   T   T
  0.4999999968182678  0.2500000041338540  0.7081373601999684   T   T   T
  0.2500000000000000  0.3750000000000000  0.2871880451221571   F   F   F
  0.5000000000000000  0.5000000000000000  0.2871880451221571   F   F   F
  0.5000000000000000  0.3750000000000000  0.3935940225610750   F   F   F
  0.2500000000000000  0.5000000000000000  0.3935940225610750   F   F   F
  0.2500000000000000  0.3750000000000000  0.5000000000000000   F   F   F
  0.5000000000000000  0.5000000000000000  0.5000000000000000   F   F   F
  0.5000000019320914  0.3749999939572884  0.6041305554126833   T   T   T
  0.2499999937387407  0.5000000060856140  0.6107776935623808   T   T   T
  0.2499999993624620  0.3749999925061472  0.7204887255349302   T   T   T
  0.5000000065724101  0.5000000030649210  0.7081373638018498   T   T   T
  0.7500000000000000  0.7500000000000000  0.2454770942506244   F   F   F
  0.7500000000000000  0.7500000000000000  0.3288989959936828   F   F   F
  0.0979995482290263  0.6250000000000000  0.2871880451221571   F   F   F
  0.9020004517709737  0.6250000000000000  0.2871880451221571   F   F   F
  0.0000000000000000  0.7500000000000000  0.3518830716895494   F   F   F
  0.0000000000000000  0.7500000000000000  0.4353049734326078   F   F   F
  0.8479995482290263  0.6250000000000000  0.3935940225610750   F   F   F
  0.1520004517709737  0.6250000000000000  0.3935940225610750   F   F   F
  0.7500000000000000  0.7500000000000000  0.4582890491284672   F   F   F
  0.7500000000000000  0.7500000000000000  0.5417109508715328   F   F   F
  0.0979995482290263  0.6250000000000000  0.5000000000000000   F   F   F
  0.9020004517709737  0.6250000000000000  0.5000000000000000   F   F   F
 -0.0000000049143710  0.7499999999252709  0.5653479439393923   T   T   T
  0.0000000107386116  0.7500000106917750  0.6489945539257939   T   T   T
  0.8501979105003264  0.6249999992444492  0.6071391792904633   T   T   T
  0.1498020872742681  0.6249999966924008  0.6071391724359820   T   T   T
  0.7500000000949326  0.7500000085587111  0.6716506411436159   T   T   T
  0.7499999950485964  0.7499999995044893  0.7559327759302296   T   T   T
  0.0940739803115713  0.6250000119539955  0.7187280657116961   T   T   T
  0.9059260263395998  0.6250000082936236  0.7187280740928333   T   T   T
  0.7500000000000000  0.0000000000000000  0.2454770942506244   F   F   F
  0.7500000000000000  0.0000000000000000  0.3288989959936828   F   F   F
  0.0979995482290263  0.8750000000000000  0.2871880451221571   F   F   F
  0.9020004517709737  0.8750000000000000  0.2871880451221571   F   F   F
  0.0000000000000000  0.0000000000000000  0.3518830716895494   F   F   F
  0.0000000000000000  0.0000000000000000  0.4353049734326078   F   F   F
  0.8479995482290263  0.8750000000000000  0.3935940225610750   F   F   F
  0.1520004517709737  0.8750000000000000  0.3935940225610750   F   F   F
  0.7500000000000000  0.0000000000000000  0.4582890491284672   F   F   F
  0.7500000000000000  0.0000000000000000  0.5417109508715328   F   F   F
  0.0979995482290263  0.8750000000000000  0.5000000000000000   F   F   F
  0.9020004517709737  0.8750000000000000  0.5000000000000000   F   F   F
 -0.0000000057120772  0.0000000146221196  0.5653479423738249   T   T   T
  0.0000000115767555 -0.0000000015890974  0.6489945531274186   T   T   T
  0.8501979084952237  0.8750000083539519  0.6071391801457785   T   T   T
  0.1498020904085089  0.8750000062682191  0.6071391726125501   T   T   T
  0.7499999960144097  0.0000000141119876  0.6716506489917227   T   T   T
  0.7499999970488938 -0.0000000053683072  0.7559327657441131   T   T   T
  0.0940739804986169  0.8749999980793699  0.7187280620628455   T   T   T
  0.9059260217197406  0.8750000109673213  0.7187280652510745   T   T   T
  0.7500000000000000  0.2500000000000000  0.2454770942506244   F   F   F
  0.7500000000000000  0.2500000000000000  0.3288989959936828   F   F   F
  0.0979995482290263  0.1250000000000000  0.2871880451221571   F   F   F
  0.9020004517709737  0.1250000000000000  0.2871880451221571   F   F   F
  0.0000000000000000  0.2500000000000000  0.3518830716895494   F   F   F
  0.0000000000000000  0.2500000000000000  0.4353049734326078   F   F   F
  0.8479995482290263  0.1250000000000000  0.3935940225610750   F   F   F
  0.1520004517709737  0.1250000000000000  0.3935940225610750   F   F   F
  0.7500000000000000  0.2500000000000000  0.4582890491284672   F   F   F
  0.7500000000000000  0.2500000000000000  0.5417109508715328   F   F   F
  0.0979995482290263  0.1250000000000000  0.5000000000000000   F   F   F
  0.9020004517709737  0.1250000000000000  0.5000000000000000   F   F   F
 -0.0000000048886391  0.2500000034706034  0.5653479382156332   T   T   T
 -0.0000000070423083  0.2499999952371344  0.6489945550644088   T   T   T
  0.8501979084711461  0.1249999984910205  0.6071391885964363   T   T   T
  0.1498020889684024  0.1250000023999784  0.6071391728102218   T   T   T
  0.7500000019438424  0.2499999793674605  0.6716506410813490   T   T   T
  0.7499999932097078  0.2500000050267887  0.7559327743545369   T   T   T
  0.0940739722578763  0.1250000020292066  0.7187280669844611   T   T   T
  0.9059260176215795  0.1249999904029521  0.7187280696098067   T   T   T
  0.7500000000000000  0.5000000000000000  0.2454770942506244   F   F   F
  0.7500000000000000  0.5000000000000000  0.3288989959936828   F   F   F
  0.0979995482290263  0.3750000000000000  0.2871880451221571   F   F   F
  0.9020004517709737  0.3750000000000000  0.2871880451221571   F   F   F
  0.0000000000000000  0.5000000000000000  0.3518830716895494   F   F   F
  0.0000000000000000  0.5000000000000000  0.4353049734326078   F   F   F
  0.8479995482290263  0.3750000000000000  0.3935940225610750   F   F   F
  0.1520004517709737  0.3750000000000000  0.3935940225610750   F   F   F
  0.7500000000000000  0.5000000000000000  0.4582890491284672   F   F   F
  0.7500000000000000  0.5000000000000000  0.5417109508715328   F   F   F
  0.0979995482290263  0.3750000000000000  0.5000000000000000   F   F   F
  0.9020004517709737  0.3750000000000000  0.5000000000000000   F   F   F
 -0.0000000101008154  0.4999999911310432  0.5653479415065304   T   T   T
  0.0000000002256529  0.4999999971895093  0.6489945604905873   T   T   T
  0.8501979047388145  0.3749999979816708  0.6071391860470734   T   T   T
  0.1498020845168713  0.3749999955324769  0.6071391678703423   T   T   T
  0.7499999924633999  0.4999999997492549  0.6716506462746897   T   T   T
  0.7499999944034882  0.5000000065302433  0.7559327713129976   T   T   T
  0.0940739749836106  0.3749999920601556  0.7187280693840109   T   T   T
  0.9059260187978230  0.3749999923973920  0.7187280781210695   T   T   T
  0.2500000000000000  0.7500000000000000  0.2454770942506244   F   F   F
  0.2500000000000000  0.7500000000000000  0.3288989959936828   F   F   F
  0.5979995482290263  0.6250000000000000  0.2871880451221571   F   F   F
  0.4020004517709737  0.6250000000000000  0.2871880451221571   F   F   F
  0.5000000000000000  0.7500000000000000  0.3518830716895494   F   F   F
  0.5000000000000000  0.7500000000000000  0.4353049734326078   F   F   F
  0.3479995482290263  0.6250000000000000  0.3935940225610750   F   F   F
  0.6520004517709737  0.6250000000000000  0.3935940225610750   F   F   F
  0.2500000000000000  0.7500000000000000  0.4582890491284672   F   F   F
  0.2500000000000000  0.7500000000000000  0.5417109508715328   F   F   F
  0.5979995482290263  0.6250000000000000  0.5000000000000000   F   F   F
  0.4020004517709737  0.6250000000000000  0.5000000000000000   F   F   F
  0.4999999913564959  0.7499999962805400  0.5653479421883951   T   T   T
  0.4999999883191306  0.7500000097311310  0.6489945564745929   T   T   T
  0.3501979131078836  0.6250000009495561  0.6071391802623728   T   T   T
  0.6498020783246400  0.6250000019540792  0.6071391681304513   T   T   T
  0.2500000055320791  0.7499999974556713  0.6716506514927459   T   T   T
  0.2500000006686373  0.7500000047840468  0.7559327797581803   T   T   T
  0.5940739743557434  0.6249999983093020  0.7187280696543731   T   T   T
  0.4059260199336070  0.6250000024969875  0.7187280637515849   T   T   T
  0.2500000000000000  0.0000000000000000  0.2454770942506244   F   F   F
  0.2500000000000000  0.0000000000000000  0.3288989959936828   F   F   F
  0.5979995482290263  0.8750000000000000  0.2871880451221571   F   F   F
  0.4020004517709737  0.8750000000000000  0.2871880451221571   F   F   F
  0.5000000000000000  0.0000000000000000  0.3518830716895494   F   F   F
  0.5000000000000000  0.0000000000000000  0.4353049734326078   F   F   F
  0.3479995482290263  0.8750000000000000  0.3935940225610750   F   F   F
  0.6520004517709737  0.8750000000000000  0.3935940225610750   F   F   F
  0.2500000000000000  0.0000000000000000  0.4582890491284672   F   F   F
  0.2500000000000000  0.0000000000000000  0.5417109508715328   F   F   F
  0.5979995482290263  0.8750000000000000  0.5000000000000000   F   F   F
  0.4020004517709737  0.8750000000000000  0.5000000000000000   F   F   F
  0.4999999905947928  0.0000000152355042  0.5653479407630225   T   T   T
  0.5000000012690575  0.0000000004582916  0.6489945538203197   T   T   T
  0.3501979161101970  0.8750000022117524  0.6071391841073928   T   T   T
  0.6498020774155026  0.8750000101710016  0.6071391751635076   T   T   T
  0.2499999961096104  0.0000000018115384  0.6716506543982629   T   T   T
  0.2499999965229582 -0.0000000056732479  0.7559327726792034   T   T   T
  0.5940739908759259  0.8750000051313513  0.7187280584183052   T   T   T
  0.4059260319259609  0.8750000085835001  0.7187280682772746   T   T   T
  0.2500000000000000  0.2500000000000000  0.2454770942506244   F   F   F
  0.2500000000000000  0.2500000000000000  0.3288989959936828   F   F   F
  0.5979995482290263  0.1250000000000000  0.2871880451221571   F   F   F
  0.4020004517709737  0.1250000000000000  0.2871880451221571   F   F   F
  0.5000000000000000  0.2500000000000000  0.3518830716895494   F   F   F
  0.5000000000000000  0.2500000000000000  0.4353049734326078   F   F   F
  0.3479995482290263  0.1250000000000000  0.3935940225610750   F   F   F
  0.6520004517709737  0.1250000000000000  0.3935940225610750   F   F   F
  0.2500000000000000  0.2500000000000000  0.4582890491284672   F   F   F
  0.2500000000000000  0.2500000000000000  0.5417109508715328   F   F   F
  0.5979995482290263  0.1250000000000000  0.5000000000000000   F   F   F
  0.4020004517709737  0.1250000000000000  0.5000000000000000   F   F   F
  0.4999999875614288  0.2499999954312232  0.5653479386780087   T   T   T
  0.4999999961582345  0.2499999989337026  0.6489945577782135   T   T   T
  0.3501979092291290  0.1249999998831332  0.6071391853994290   T   T   T
  0.6498020713249072  0.1249999978348061  0.6071391740616214   T   T   T
  0.2499999958881238  0.2500000075694293  0.6716506486685834   T   T   T
  0.2499999976577917  0.2499999950017482  0.7559327803877569   T   T   T
  0.5940739802462315  0.1250000140158377  0.7187280664719568   T   T   T
  0.4059260220425513  0.1249999885127006  0.7187280635305395   T   T   T
  0.2500000000000000  0.5000000000000000  0.2454770942506244   F   F   F
  0.2500000000000000  0.5000000000000000  0.3288989959936828   F   F   F
  0.5979995482290263  0.3750000000000000  0.2871880451221571   F   F   F
  0.4020004517709737  0.3750000000000000  0.2871880451221571   F   F   F
  0.5000000000000000  0.5000000000000000  0.3518830716895494   F   F   F
  0.5000000000000000  0.5000000000000000  0.4353049734326078   F   F   F
  0.3479995482290263  0.3750000000000000  0.3935940225610750   F   F   F
  0.6520004517709737  0.3750000000000000  0.3935940225610750   F   F   F
  0.2500000000000000  0.5000000000000000  0.4582890491284672   F   F   F
  0.2500000000000000  0.5000000000000000  0.5417109508715328   F   F   F
  0.5979995482290263  0.3750000000000000  0.5000000000000000   F   F   F
  0.4020004517709737  0.3750000000000000  0.5000000000000000   F   F   F
  0.4999999948239279  0.4999999961557156  0.5653479398046584   T   T   T
  0.5000000036151775  0.4999999956082358  0.6489945578188784   T   T   T
  0.3501979203463687  0.3749999936184885  0.6071391808108361   T   T   T
  0.6498020749383507  0.3749999925723139  0.6071391723146600   T   T   T
  0.2499999927145889  0.4999999949825945  0.6716506491245625   T   T   T
  0.2499999969101575  0.5000000108935797  0.7559327737681513   T   T   T
  0.5940739768513315  0.3749999923370052  0.7187280655360546   T   T   T
  0.4059260186209768  0.3750000023620021  0.7187280705823044   T   T   T

  0.00000000E+00  0.00000000E+00  0.00000000E+00
  0.00000000E+00  0.00000000E+00  0.00000000E+00
  0.00000000E+00  0.00000000E+00  0.00000000E+00
  0.00000000E+00  0.00000000E+00  0.00000000E+00
  0.00000000E+00  0.00000000E+00  0.00000000E+00
  0.00000000E+00  0.00000000E+00  0.00000000E+00
  0.00000000E+00  0.00000000E+00  0.00000000E+00
  0.00000000E+00  0.00000000E+00  0.00000000E+00
  0.00000000E+00  0.00000000E+00  0.00000000E+00
  0.00000000E+00  0.00000000E+00  0.00000000E+00
  0.00000000E+00  0.00000000E+00  0.00000000E+00
  0.00000000E+00  0.00000000E+00  0.00000000E+00
  0.00000000E+00  0.00000000E+00  0.00000000E+00
  0.00000000E+00  0.00000000E+00  0.00000000E+00
  0.00000000E+00  0.00000000E+00  0.00000000E+00
  0.00000000E+00  0.00000000E+00  0.00000000E+00
  0.00000000E+00  0.00000000E+00  0.00000000E+00
  0.00000000E+00  0.00000000E+00  0.00000000E+00
  0.00000000E+00  0.00000000E+00  0.00000000E+00
  0.00000000E+00  0.00000000E+00  0.00000000E+00
  0.00000000E+00  0.00000000E+00  0.00000000E+00
  0.00000000E+00  0.00000000E+00  0.00000000E+00
  0.00000000E+00  0.00000000E+00  0.00000000E+00
  0.00000000E+00  0.00000000E+00  0.00000000E+00
  0.00000000E+00  0.00000000E+00  0.00000000E+00
  0.00000000E+00  0.00000000E+00  0.00000000E+00
  0.00000000E+00  0.00000000E+00  0.00000000E+00
  0.00000000E+00  0.00000000E+00  0.00000000E+00
  0.00000000E+00  0.00000000E+00  0.00000000E+00
  0.00000000E+00  0.00000000E+00  0.00000000E+00
  0.00000000E+00  0.00000000E+00  0.00000000E+00
  0.00000000E+00  0.00000000E+00  0.00000000E+00
  0.00000000E+00  0.00000000E+00  0.00000000E+00
  0.00000000E+00  0.00000000E+00  0.00000000E+00
  0.00000000E+00  0.00000000E+00  0.00000000E+00
  0.00000000E+00  0.00000000E+00  0.00000000E+00
  0.00000000E+00  0.00000000E+00  0.00000000E+00
  0.00000000E+00  0.00000000E+00  0.00000000E+00
  0.00000000E+00  0.00000000E+00  0.00000000E+00
  0.00000000E+00  0.00000000E+00  0.00000000E+00
  0.00000000E+00  0.00000000E+00  0.00000000E+00
  0.00000000E+00  0.00000000E+00  0.00000000E+00
  0.00000000E+00  0.00000000E+00  0.00000000E+00
  0.00000000E+00  0.00000000E+00  0.00000000E+00
  0.00000000E+00  0.00000000E+00  0.00000000E+00
  0.00000000E+00  0.00000000E+00  0.00000000E+00
  0.00000000E+00  0.00000000E+00  0.00000000E+00
  0.00000000E+00  0.00000000E+00  0.00000000E+00
  0.00000000E+00  0.00000000E+00  0.00000000E+00
  0.00000000E+00  0.00000000E+00  0.00000000E+00
  0.00000000E+00  0.00000000E+00  0.00000000E+00
  0.00000000E+00  0.00000000E+00  0.00000000E+00
  0.00000000E+00  0.00000000E+00  0.00000000E+00
  0.00000000E+00  0.00000000E+00  0.00000000E+00
  0.00000000E+00  0.00000000E+00  0.00000000E+00
  0.00000000E+00  0.00000000E+00  0.00000000E+00
  0.00000000E+00  0.00000000E+00  0.00000000E+00
  0.00000000E+00  0.00000000E+00  0.00000000E+00
  0.00000000E+00  0.00000000E+00  0.00000000E+00
  0.00000000E+00  0.00000000E+00  0.00000000E+00
  0.00000000E+00  0.00000000E+00  0.00000000E+00
  0.00000000E+00  0.00000000E+00  0.00000000E+00
  0.00000000E+00  0.00000000E+00  0.00000000E+00
  0.00000000E+00  0.00000000E+00  0.00000000E+00
  0.00000000E+00  0.00000000E+00  0.00000000E+00
  0.00000000E+00  0.00000000E+00  0.00000000E+00
  0.00000000E+00  0.00000000E+00  0.00000000E+00
  0.00000000E+00  0.00000000E+00  0.00000000E+00
  0.00000000E+00  0.00000000E+00  0.00000000E+00
  0.00000000E+00  0.00000000E+00  0.00000000E+00
  0.00000000E+00  0.00000000E+00  0.00000000E+00
  0.00000000E+00  0.00000000E+00  0.00000000E+00
  0.00000000E+00  0.00000000E+00  0.00000000E+00
  0.00000000E+00  0.00000000E+00  0.00000000E+00
  0.00000000E+00  0.00000000E+00  0.00000000E+00
  0.00000000E+00  0.00000000E+00  0.00000000E+00
  0.00000000E+00  0.00000000E+00  0.00000000E+00
  0.00000000E+00  0.00000000E+00  0.00000000E+00
  0.00000000E+00  0.00000000E+00  0.00000000E+00
  0.00000000E+00  0.00000000E+00  0.00000000E+00
  0.00000000E+00  0.00000000E+00  0.00000000E+00
  0.00000000E+00  0.00000000E+00  0.00000000E+00
  0.00000000E+00  0.00000000E+00  0.00000000E+00
  0.00000000E+00  0.00000000E+00  0.00000000E+00
  0.00000000E+00  0.00000000E+00  0.00000000E+00
  0.00000000E+00  0.00000000E+00  0.00000000E+00
  0.00000000E+00  0.00000000E+00  0.00000000E+00
  0.00000000E+00  0.00000000E+00  0.00000000E+00
  0.00000000E+00  0.00000000E+00  0.00000000E+00
  0.00000000E+00  0.00000000E+00  0.00000000E+00
  0.00000000E+00  0.00000000E+00  0.00000000E+00
  0.00000000E+00  0.00000000E+00  0.00000000E+00
  0.00000000E+00  0.00000000E+00  0.00000000E+00
  0.00000000E+00  0.00000000E+00  0.00000000E+00
  0.00000000E+00  0.00000000E+00  0.00000000E+00
  0.00000000E+00  0.00000000E+00  0.00000000E+00
  0.00000000E+00  0.00000000E+00  0.00000000E+00
  0.00000000E+00  0.00000000E+00  0.00000000E+00
  0.00000000E+00  0.00000000E+00  0.00000000E+00
  0.00000000E+00  0.00000000E+00  0.00000000E+00
  0.00000000E+00  0.00000000E+00  0.00000000E+00
  0.00000000E+00  0.00000000E+00  0.00000000E+00
  0.00000000E+00  0.00000000E+00  0.00000000E+00
  0.00000000E+00  0.00000000E+00  0.00000000E+00
  0.00000000E+00  0.00000000E+00  0.00000000E+00
  0.00000000E+00  0.00000000E+00  0.00000000E+00
  0.00000000E+00  0.00000000E+00  0.00000000E+00
  0.00000000E+00  0.00000000E+00  0.00000000E+00
  0.00000000E+00  0.00000000E+00  0.00000000E+00
  0.00000000E+00  0.00000000E+00  0.00000000E+00
  0.00000000E+00  0.00000000E+00  0.00000000E+00
  0.00000000E+00  0.00000000E+00  0.00000000E+00
  0.00000000E+00  0.00000000E+00  0.00000000E+00
  0.00000000E+00  0.00000000E+00  0.00000000E+00
  0.00000000E+00  0.00000000E+00  0.00000000E+00
  0.00000000E+00  0.00000000E+00  0.00000000E+00
  0.00000000E+00  0.00000000E+00  0.00000000E+00
  0.00000000E+00  0.00000000E+00  0.00000000E+00
  0.00000000E+00  0.00000000E+00  0.00000000E+00
  0.00000000E+00  0.00000000E+00  0.00000000E+00
  0.00000000E+00  0.00000000E+00  0.00000000E+00
  0.00000000E+00  0.00000000E+00  0.00000000E+00
  0.00000000E+00  0.00000000E+00  0.00000000E+00
  0.00000000E+00  0.00000000E+00  0.00000000E+00
  0.00000000E+00  0.00000000E+00  0.00000000E+00
  0.00000000E+00  0.00000000E+00  0.00000000E+00
  0.00000000E+00  0.00000000E+00  0.00000000E+00
  0.00000000E+00  0.00000000E+00  0.00000000E+00
  0.00000000E+00  0.00000000E+00  0.00000000E+00
  0.00000000E+00  0.00000000E+00  0.00000000E+00
  0.00000000E+00  0.00000000E+00  0.00000000E+00
  0.00000000E+00  0.00000000E+00  0.00000000E+00
  0.00000000E+00  0.00000000E+00  0.00000000E+00
  0.00000000E+00  0.00000000E+00  0.00000000E+00
  0.00000000E+00  0.00000000E+00  0.00000000E+00
  0.00000000E+00  0.00000000E+00  0.00000000E+00
  0.00000000E+00  0.00000000E+00  0.00000000E+00
  0.00000000E+00  0.00000000E+00  0.00000000E+00
  0.00000000E+00  0.00000000E+00  0.00000000E+00
  0.00000000E+00  0.00000000E+00  0.00000000E+00
  0.00000000E+00  0.00000000E+00  0.00000000E+00
  0.00000000E+00  0.00000000E+00  0.00000000E+00
  0.00000000E+00  0.00000000E+00  0.00000000E+00
  0.00000000E+00  0.00000000E+00  0.00000000E+00
  0.00000000E+00  0.00000000E+00  0.00000000E+00
  0.00000000E+00  0.00000000E+00  0.00000000E+00
  0.00000000E+00  0.00000000E+00  0.00000000E+00
  0.00000000E+00  0.00000000E+00  0.00000000E+00
  0.00000000E+00  0.00000000E+00  0.00000000E+00
  0.00000000E+00  0.00000000E+00  0.00000000E+00
  0.00000000E+00  0.00000000E+00  0.00000000E+00
  0.00000000E+00  0.00000000E+00  0.00000000E+00
  0.00000000E+00  0.00000000E+00  0.00000000E+00
  0.00000000E+00  0.00000000E+00  0.00000000E+00
  0.00000000E+00  0.00000000E+00  0.00000000E+00
  0.00000000E+00  0.00000000E+00  0.00000000E+00
  0.00000000E+00  0.00000000E+00  0.00000000E+00
  0.00000000E+00  0.00000000E+00  0.00000000E+00
  0.00000000E+00  0.00000000E+00  0.00000000E+00
  0.00000000E+00  0.00000000E+00  0.00000000E+00
  0.00000000E+00  0.00000000E+00  0.00000000E+00
  0.00000000E+00  0.00000000E+00  0.00000000E+00
  0.00000000E+00  0.00000000E+00  0.00000000E+00
  0.00000000E+00  0.00000000E+00  0.00000000E+00
  0.00000000E+00  0.00000000E+00  0.00000000E+00
  0.00000000E+00  0.00000000E+00  0.00000000E+00
  0.00000000E+00  0.00000000E+00  0.00000000E+00
  0.00000000E+00  0.00000000E+00  0.00000000E+00
  0.00000000E+00  0.00000000E+00  0.00000000E+00
  0.00000000E+00  0.00000000E+00  0.00000000E+00
  0.00000000E+00  0.00000000E+00  0.00000000E+00
  0.00000000E+00  0.00000000E+00  0.00000000E+00
  0.00000000E+00  0.00000000E+00  0.00000000E+00
  0.00000000E+00  0.00000000E+00  0.00000000E+00
  0.00000000E+00  0.00000000E+00  0.00000000E+00
  0.00000000E+00  0.00000000E+00  0.00000000E+00
  0.00000000E+00  0.00000000E+00  0.00000000E+00
  0.00000000E+00  0.00000000E+00  0.00000000E+00
  0.00000000E+00  0.00000000E+00  0.00000000E+00
  0.00000000E+00  0.00000000E+00  0.00000000E+00
  0.00000000E+00  0.00000000E+00  0.00000000E+00
  0.00000000E+00  0.00000000E+00  0.00000000E+00
  0.00000000E+00  0.00000000E+00  0.00000000E+00
  0.00000000E+00  0.00000000E+00  0.00000000E+00
  0.00000000E+00  0.00000000E+00  0.00000000E+00
  0.00000000E+00  0.00000000E+00  0.00000000E+00
  0.00000000E+00  0.00000000E+00  0.00000000E+00
  0.00000000E+00  0.00000000E+00  0.00000000E+00
  0.00000000E+00  0.00000000E+00  0.00000000E+00
  0.00000000E+00  0.00000000E+00  0.00000000E+00
  0.00000000E+00  0.00000000E+00  0.00000000E+00
  0.00000000E+00  0.00000000E+00  0.00000000E+00
  0.00000000E+00  0.00000000E+00  0.00000000E+00
  0.00000000E+00  0.00000000E+00  0.00000000E+00
  0.00000000E+00  0.00000000E+00  0.00000000E+00
  0.00000000E+00  0.00000000E+00  0.00000000E+00
  0.00000000E+00  0.00000000E+00  0.00000000E+00
  0.00000000E+00  0.00000000E+00  0.00000000E+00
  0.00000000E+00  0.00000000E+00  0.00000000E+00
  0.00000000E+00  0.00000000E+00  0.00000000E+00
  0.00000000E+00  0.00000000E+00  0.00000000E+00
  0.00000000E+00  0.00000000E+00  0.00000000E+00
  0.00000000E+00  0.00000000E+00  0.00000000E+00
  0.00000000E+00  0.00000000E+00  0.00000000E+00
  0.00000000E+00  0.00000000E+00  0.00000000E+00
  0.00000000E+00  0.00000000E+00  0.00000000E+00
  0.00000000E+00  0.00000000E+00  0.00000000E+00
  0.00000000E+00  0.00000000E+00  0.00000000E+00
  0.00000000E+00  0.00000000E+00  0.00000000E+00
  0.00000000E+00  0.00000000E+00  0.00000000E+00
  0.00000000E+00  0.00000000E+00  0.00000000E+00
  0.00000000E+00  0.00000000E+00  0.00000000E+00
  0.00000000E+00  0.00000000E+00  0.00000000E+00
  0.00000000E+00  0.00000000E+00  0.00000000E+00
  0.00000000E+00  0.00000000E+00  0.00000000E+00
  0.00000000E+00  0.00000000E+00  0.00000000E+00
  0.00000000E+00  0.00000000E+00  0.00000000E+00
  0.00000000E+00  0.00000000E+00  0.00000000E+00
  0.00000000E+00  0.00000000E+00  0.00000000E+00
  0.00000000E+00  0.00000000E+00  0.00000000E+00
  0.00000000E+00  0.00000000E+00  0.00000000E+00
  0.00000000E+00  0.00000000E+00  0.00000000E+00
  0.00000000E+00  0.00000000E+00  0.00000000E+00
  0.00000000E+00  0.00000000E+00  0.00000000E+00
  0.00000000E+00  0.00000000E+00  0.00000000E+00
  0.00000000E+00  0.00000000E+00  0.00000000E+00
  0.00000000E+00  0.00000000E+00  0.00000000E+00
  0.00000000E+00  0.00000000E+00  0.00000000E+00
  0.00000000E+00  0.00000000E+00  0.00000000E+00
  0.00000000E+00  0.00000000E+00  0.00000000E+00
  0.00000000E+00  0.00000000E+00  0.00000000E+00
  0.00000000E+00  0.00000000E+00  0.00000000E+00
  0.00000000E+00  0.00000000E+00  0.00000000E+00
  0.00000000E+00  0.00000000E+00  0.00000000E+00
  0.00000000E+00  0.00000000E+00  0.00000000E+00
  0.00000000E+00  0.00000000E+00  0.00000000E+00
  0.00000000E+00  0.00000000E+00  0.00000000E+00
  0.00000000E+00  0.00000000E+00  0.00000000E+00
  0.00000000E+00  0.00000000E+00  0.00000000E+00
  0.00000000E+00  0.00000000E+00  0.00000000E+00
