Ti  O                                   
   1.0000000000000000     
    12.9817736030670527    0.0000000000000000    0.0000000000000000
     0.0000000000000000   11.8299322947256531    0.0000000000000000
     0.0000000000000000    0.0000000000000000   30.5248231048107002
   Ti   O 
    80   160
Selective dynamics
Direct
  0.7500000000000000  0.6250000000000000  0.2873571034549087   F   F   F
  0.0000000000000000  0.7500000000000000  0.2873571034549087   F   F   F
  0.0000000000000000  0.6250000000000000  0.3936785517274544   F   F   F
  0.7500000000000000  0.7500000000000000  0.3936785517274544   F   F   F
  0.7500000000000000  0.6250000000000000  0.5000000000000000   F   F   F
  0.0000000000000000  0.7500000000000000  0.5000000000000000   F   F   F
 -0.0000000010203267  0.6250000032005056  0.6041418352755338   T   T   T
  0.7499999253260177  0.7499999976963466  0.6102060982308956   T   T   T
  0.7500000458295683  0.6250000060281745  0.7197461497137124   T   T   T
  0.0000000686043508  0.7499999955689081  0.7079835247364912   T   T   T
  0.7500000000000000  0.8750000000000000  0.2873571034549087   F   F   F
  0.0000000000000000  0.0000000000000000  0.2873571034549087   F   F   F
  0.0000000000000000  0.8750000000000000  0.3936785517274544   F   F   F
  0.7500000000000000  0.0000000000000000  0.3936785517274544   F   F   F
  0.7500000000000000  0.8750000000000000  0.5000000000000000   F   F   F
  0.0000000000000000  0.0000000000000000  0.5000000000000000   F   F   F
 -0.0000000620420289  0.8749999746264286  0.6041418487431808   T   T   T
  0.7499999191337717  0.0000000148795678  0.6102061354288386   T   T   T
  0.7500000471695248  0.8749999845694197  0.7197461746687916   T   T   T
  0.0000000737511697  0.0000000095058803  0.7079835249457465   T   T   T
  0.7500000000000000  0.1250000000000000  0.2873571034549087   F   F   F
  0.0000000000000000  0.2500000000000000  0.2873571034549087   F   F   F
  0.0000000000000000  0.1250000000000000  0.3936785517274544   F   F   F
  0.7500000000000000  0.2500000000000000  0.3936785517274544   F   F   F
  0.7500000000000000  0.1250000000000000  0.5000000000000000   F   F   F
  0.0000000000000000  0.2500000000000000  0.5000000000000000   F   F   F
 -0.0000000021531428  0.1249999740031784  0.6041418575798135   T   T   T
  0.7499999350012245  0.2499999979955762  0.6102061215176406   T   T   T
  0.7500000454561078  0.1250000008714446  0.7197461493755918   T   T   T
  0.0000000248561791  0.2499999968134789  0.7079835281037953   T   T   T
  0.7500000000000000  0.3750000000000000  0.2873571034549087   F   F   F
  0.0000000000000000  0.5000000000000000  0.2873571034549087   F   F   F
  0.0000000000000000  0.3750000000000000  0.3936785517274544   F   F   F
  0.7500000000000000  0.5000000000000000  0.3936785517274544   F   F   F
  0.7500000000000000  0.3750000000000000  0.5000000000000000   F   F   F
  0.0000000000000000  0.5000000000000000  0.5000000000000000   F   F   F
 -0.0000000032375574  0.3749999923366157  0.6041418517697748   T   T   T
  0.7499999608364178  0.4999999884401433  0.6102060996032329   T   T   T
  0.7500000364763445  0.3750000060936134  0.7197461835143729   T   T   T
 -0.0000000025637858  0.5000000020161848  0.7079835194696111   T   T   T
  0.2500000000000000  0.6250000000000000  0.2873571034549087   F   F   F
  0.5000000000000000  0.7500000000000000  0.2873571034549087   F   F   F
  0.5000000000000000  0.6250000000000000  0.3936785517274544   F   F   F
  0.2500000000000000  0.7500000000000000  0.3936785517274544   F   F   F
  0.2500000000000000  0.6250000000000000  0.5000000000000000   F   F   F
  0.5000000000000000  0.7500000000000000  0.5000000000000000   F   F   F
  0.4999999811888428  0.6250000084422154  0.6041418659784591   T   T   T
  0.2499999218166574  0.7500000073936982  0.6102061320737312   T   T   T
  0.2500000316459784  0.6249999946808389  0.7197461658773071   T   T   T
  0.5000000639681046  0.7499999748133637  0.7079835312086997   T   T   T
  0.2500000000000000  0.8750000000000000  0.2873571034549087   F   F   F
  0.5000000000000000  0.0000000000000000  0.2873571034549087   F   F   F
  0.5000000000000000  0.8750000000000000  0.3936785517274544   F   F   F
  0.2500000000000000  0.0000000000000000  0.3936785517274544   F   F   F
  0.2500000000000000  0.8750000000000000  0.5000000000000000   F   F   F
  0.5000000000000000  0.0000000000000000  0.5000000000000000   F   F   F
  0.4999999737528230  0.8749999841392172  0.6041418499515530   T   T   T
  0.2499999339571637  0.0000000073927631  0.6102061625885445   T   T   T
  0.2500000539692133  0.8749999892827954  0.7197461539292399   T   T   T
  0.5000000736999068  0.0000000007614115  0.7079835279823957   T   T   T
  0.2500000000000000  0.1250000000000000  0.2873571034549087   F   F   F
  0.5000000000000000  0.2500000000000000  0.2873571034549087   F   F   F
  0.5000000000000000  0.1250000000000000  0.3936785517274544   F   F   F
  0.2500000000000000  0.2500000000000000  0.3936785517274544   F   F   F
  0.2500000000000000  0.1250000000000000  0.5000000000000000   F   F   F
  0.5000000000000000  0.2500000000000000  0.5000000000000000   F   F   F
  0.4999999798085481  0.1249999821833660  0.6041418463687704   T   T   T
  0.2499999769115427  0.2499999984741647  0.6102061180801479   T   T   T
  0.2500000465330692  0.1250000130488093  0.7197461744833050   T   T   T
  0.5000000256481359  0.2500000100058810  0.7079835310608008   T   T   T
  0.2500000000000000  0.3750000000000000  0.2873571034549087   F   F   F
  0.5000000000000000  0.5000000000000000  0.2873571034549087   F   F   F
  0.5000000000000000  0.3750000000000000  0.3936785517274544   F   F   F
  0.2500000000000000  0.5000000000000000  0.3936785517274544   F   F   F
  0.2500000000000000  0.3750000000000000  0.5000000000000000   F   F   F
  0.5000000000000000  0.5000000000000000  0.5000000000000000   F   F   F
  0.5000000005155886  0.3750000026290845  0.6041418542508102   T   T   T
  0.2499999475153482  0.4999999920352727  0.6102061192170859   T   T   T
  0.2500000252253277  0.3749999998759609  0.7197461791705773   T   T   T
  0.5000000396775811  0.5000000071075754  0.7079835221301665   T   T   T
  0.7500000000000000  0.7500000000000000  0.2457016695640704   F   F   F
  0.7500000000000000  0.7500000000000000  0.3290125373457400   F   F   F
  0.0979469207945058  0.6250000000000000  0.2873571034549087   F   F   F
  0.9020530792054942  0.6250000000000000  0.2873571034549087   F   F   F
  0.0000000000000000  0.7500000000000000  0.3520231178366231   F   F   F
  0.0000000000000000  0.7500000000000000  0.4353339856182856   F   F   F
  0.8479469207945058  0.6250000000000000  0.3936785517274544   F   F   F
  0.1520530792054942  0.6250000000000000  0.3936785517274544   F   F   F
  0.7500000000000000  0.7500000000000000  0.4583445661091687   F   F   F
  0.7500000000000000  0.7500000000000000  0.5416554338908313   F   F   F
  0.0979469207945058  0.6250000000000000  0.5000000000000000   F   F   F
  0.9020530792054942  0.6250000000000000  0.5000000000000000   F   F   F
 -0.0000000995946831  0.7499999988053897  0.5651423997509446   T   T   T
  0.0000000481823750  0.7499999938302639  0.6485970565895965   T   T   T
  0.8500513601181012  0.6250000107586040  0.6068851657002579   T   T   T
  0.1499486898312477  0.6249999987083998  0.6068851161703093   T   T   T
  0.7500000510207068  0.7499999933568826  0.6713162475703330   T   T   T
  0.7499998689616265  0.7499999591953765  0.7549670571564248   T   T   T
  0.0938451783715771  0.6249999895672493  0.7183056389380781   T   T   T
  0.9061550217849433  0.6250000094718909  0.7183057767966962   T   T   T
  0.7500000000000000  0.0000000000000000  0.2457016695640704   F   F   F
  0.7500000000000000  0.0000000000000000  0.3290125373457400   F   F   F
  0.0979469207945058  0.8750000000000000  0.2873571034549087   F   F   F
  0.9020530792054942  0.8750000000000000  0.2873571034549087   F   F   F
  0.0000000000000000  0.0000000000000000  0.3520231178366231   F   F   F
  0.0000000000000000  0.0000000000000000  0.4353339856182856   F   F   F
  0.8479469207945058  0.8750000000000000  0.3936785517274544   F   F   F
  0.1520530792054942  0.8750000000000000  0.3936785517274544   F   F   F
  0.7500000000000000  0.0000000000000000  0.4583445661091687   F   F   F
  0.7500000000000000  0.0000000000000000  0.5416554338908313   F   F   F
  0.0979469207945058  0.8750000000000000  0.5000000000000000   F   F   F
  0.9020530792054942  0.8750000000000000  0.5000000000000000   F   F   F
 -0.0000000998864259 -0.0000000014562088  0.5651424012424143   T   T   T
  0.0000000470790264 -0.0000000110505588  0.6485970606930713   T   T   T
  0.8500513659188570  0.8750000070715936  0.6068851788808013   T   T   T
  0.1499486958848592  0.8749999906057947  0.6068851119436540   T   T   T
  0.7500000500527058 -0.0000000013031417  0.6713162442217014   T   T   T
  0.7499998773494400  0.0000000483249623  0.7549670608809822   T   T   T
  0.0938452062996666  0.8749999970013285  0.7183056383849035   T   T   T
  0.9061550353536379  0.8749999941852685  0.7183057762193212   T   T   T
  0.7500000000000000  0.2500000000000000  0.2457016695640704   F   F   F
  0.7500000000000000  0.2500000000000000  0.3290125373457400   F   F   F
  0.0979469207945058  0.1250000000000000  0.2873571034549087   F   F   F
  0.9020530792054942  0.1250000000000000  0.2873571034549087   F   F   F
  0.0000000000000000  0.2500000000000000  0.3520231178366231   F   F   F
  0.0000000000000000  0.2500000000000000  0.4353339856182856   F   F   F
  0.8479469207945058  0.1250000000000000  0.3936785517274544   F   F   F
  0.1520530792054942  0.1250000000000000  0.3936785517274544   F   F   F
  0.7500000000000000  0.2500000000000000  0.4583445661091687   F   F   F
  0.7500000000000000  0.2500000000000000  0.5416554338908313   F   F   F
  0.0979469207945058  0.1250000000000000  0.5000000000000000   F   F   F
  0.9020530792054942  0.1250000000000000  0.5000000000000000   F   F   F
 -0.0000001100933349  0.2499999977613492  0.5651424008756443   T   T   T
  0.0000000301951061  0.2500000095061199  0.6485970630654998   T   T   T
  0.8500513637309967  0.1250000044014906  0.6068851740789810   T   T   T
  0.1499486842666439  0.1249999967716075  0.6068851206792902   T   T   T
  0.7500000554758035  0.2499999922865387  0.6713162547461977   T   T   T
  0.7499998639883136  0.2499999341640877  0.7549670787407837   T   T   T
  0.0938451833056399  0.1250000083519354  0.7183056458207951   T   T   T
  0.9061550317749010  0.1249999820666382  0.7183057807312323   T   T   T
  0.7500000000000000  0.5000000000000000  0.2457016695640704   F   F   F
  0.7500000000000000  0.5000000000000000  0.3290125373457400   F   F   F
  0.0979469207945058  0.3750000000000000  0.2873571034549087   F   F   F
  0.9020530792054942  0.3750000000000000  0.2873571034549087   F   F   F
  0.0000000000000000  0.5000000000000000  0.3520231178366231   F   F   F
  0.0000000000000000  0.5000000000000000  0.4353339856182856   F   F   F
  0.8479469207945058  0.3750000000000000  0.3936785517274544   F   F   F
  0.1520530792054942  0.3750000000000000  0.3936785517274544   F   F   F
  0.7500000000000000  0.5000000000000000  0.4583445661091687   F   F   F
  0.7500000000000000  0.5000000000000000  0.5416554338908313   F   F   F
  0.0979469207945058  0.3750000000000000  0.5000000000000000   F   F   F
  0.9020530792054942  0.3750000000000000  0.5000000000000000   F   F   F
 -0.0000001083500703  0.4999999979496428  0.5651423974279633   T   T   T
  0.0000000346140393  0.5000000035557071  0.6485970551503406   T   T   T
  0.8500513594754127  0.3750000037052509  0.6068851750917960   T   T   T
  0.1499486926814200  0.3750000039382619  0.6068851242641611   T   T   T
  0.7500000554257555  0.5000000133780692  0.6713162524491022   T   T   T
  0.7499998455674002  0.5000000561348503  0.7549670737333453   T   T   T
  0.0938451643140210  0.3749999953132492  0.7183056486550236   T   T   T
  0.9061550141503075  0.3749999990939752  0.7183057846462891   T   T   T
  0.2500000000000000  0.7500000000000000  0.2457016695640704   F   F   F
  0.2500000000000000  0.7500000000000000  0.3290125373457400   F   F   F
  0.5979469207945058  0.6250000000000000  0.2873571034549087   F   F   F
  0.4020530792054942  0.6250000000000000  0.2873571034549087   F   F   F
  0.5000000000000000  0.7500000000000000  0.3520231178366231   F   F   F
  0.5000000000000000  0.7500000000000000  0.4353339856182856   F   F   F
  0.3479469207945058  0.6250000000000000  0.3936785517274544   F   F   F
  0.6520530792054942  0.6250000000000000  0.3936785517274544   F   F   F
  0.2500000000000000  0.7500000000000000  0.4583445661091687   F   F   F
  0.2500000000000000  0.7500000000000000  0.5416554338908313   F   F   F
  0.5979469207945058  0.6250000000000000  0.5000000000000000   F   F   F
  0.4020530792054942  0.6250000000000000  0.5000000000000000   F   F   F
  0.4999999015908628  0.7500000019750935  0.5651424047475376   T   T   T
  0.5000000461563930  0.7500000009458102  0.6485970627332943   T   T   T
  0.3500513624751634  0.6250000018243239  0.6068851726182746   T   T   T
  0.6499486813508863  0.6250000071689601  0.6068851393461669   T   T   T
  0.2500000481807808  0.7499999929345764  0.6713162521415622   T   T   T
  0.2499998666182001  0.7500000257180010  0.7549670600076127   T   T   T
  0.5938451599248961  0.6250000015833120  0.7183056397826770   T   T   T
  0.4061550182035983  0.6250000027442560  0.7183057784686750   T   T   T
  0.2500000000000000  0.0000000000000000  0.2457016695640704   F   F   F
  0.2500000000000000  0.0000000000000000  0.3290125373457400   F   F   F
  0.5979469207945058  0.8750000000000000  0.2873571034549087   F   F   F
  0.4020530792054942  0.8750000000000000  0.2873571034549087   F   F   F
  0.5000000000000000  0.0000000000000000  0.3520231178366231   F   F   F
  0.5000000000000000  0.0000000000000000  0.4353339856182856   F   F   F
  0.3479469207945058  0.8750000000000000  0.3936785517274544   F   F   F
  0.6520530792054942  0.8750000000000000  0.3936785517274544   F   F   F
  0.2500000000000000  0.0000000000000000  0.4583445661091687   F   F   F
  0.2500000000000000  0.0000000000000000  0.5416554338908313   F   F   F
  0.5979469207945058  0.8750000000000000  0.5000000000000000   F   F   F
  0.4020530792054942  0.8750000000000000  0.5000000000000000   F   F   F
  0.4999999038824783 -0.0000000045146177  0.5651423992658579   T   T   T
  0.5000000523358928 -0.0000000019711476  0.6485970579805829   T   T   T
  0.3500513585079441  0.8749999965067017  0.6068851711354140   T   T   T
  0.6499486986570121  0.8749999997876234  0.6068851159821974   T   T   T
  0.2500000475469106  0.0000000033973221  0.6713162522700301   T   T   T
  0.2499998612828220 -0.0000000300420810  0.7549670661038338   T   T   T
  0.5938451865761678  0.8749999935849136  0.7183056430716190   T   T   T
  0.4061550295302841  0.8749999975897514  0.7183057838037813   T   T   T
  0.2500000000000000  0.2500000000000000  0.2457016695640704   F   F   F
  0.2500000000000000  0.2500000000000000  0.3290125373457400   F   F   F
  0.5979469207945058  0.1250000000000000  0.2873571034549087   F   F   F
  0.4020530792054942  0.1250000000000000  0.2873571034549087   F   F   F
  0.5000000000000000  0.2500000000000000  0.3520231178366231   F   F   F
  0.5000000000000000  0.2500000000000000  0.4353339856182856   F   F   F
  0.3479469207945058  0.1250000000000000  0.3936785517274544   F   F   F
  0.6520530792054942  0.1250000000000000  0.3936785517274544   F   F   F
  0.2500000000000000  0.2500000000000000  0.4583445661091687   F   F   F
  0.2500000000000000  0.2500000000000000  0.5416554338908313   F   F   F
  0.5979469207945058  0.1250000000000000  0.5000000000000000   F   F   F
  0.4020530792054942  0.1250000000000000  0.5000000000000000   F   F   F
  0.4999999093659463  0.2499999992723139  0.5651423988598852   T   T   T
  0.5000000523557483  0.2499999985763049  0.6485970611881431   T   T   T
  0.3500513581855444  0.1249999889221960  0.6068851681876528   T   T   T
  0.6499486875271444  0.1250000101839285  0.6068851251900436   T   T   T
  0.2500000550433594  0.2499999906109602  0.6713162593115002   T   T   T
  0.2499998483328981  0.2499999831396637  0.7549670985874730   T   T   T
  0.5938451725006405  0.1249999992624429  0.7183056432202893   T   T   T
  0.4061550264115693  0.1249999818945366  0.7183057891935639   T   T   T
  0.2500000000000000  0.5000000000000000  0.2457016695640704   F   F   F
  0.2500000000000000  0.5000000000000000  0.3290125373457400   F   F   F
  0.5979469207945058  0.3750000000000000  0.2873571034549087   F   F   F
  0.4020530792054942  0.3750000000000000  0.2873571034549087   F   F   F
  0.5000000000000000  0.5000000000000000  0.3520231178366231   F   F   F
  0.5000000000000000  0.5000000000000000  0.4353339856182856   F   F   F
  0.3479469207945058  0.3750000000000000  0.3936785517274544   F   F   F
  0.6520530792054942  0.3750000000000000  0.3936785517274544   F   F   F
  0.2500000000000000  0.5000000000000000  0.4583445661091687   F   F   F
  0.2500000000000000  0.5000000000000000  0.5416554338908313   F   F   F
  0.5979469207945058  0.3750000000000000  0.5000000000000000   F   F   F
  0.4020530792054942  0.3750000000000000  0.5000000000000000   F   F   F
  0.4999999034906892  0.4999999958553054  0.5651424021767818   T   T   T
  0.5000000575301363  0.4999999937898640  0.6485970577236303   T   T   T
  0.3500513681719233  0.3749999979762175  0.6068851740599841   T   T   T
  0.6499486958387299  0.3749999937841540  0.6068851268281386   T   T   T
  0.2500000452618073  0.4999999982899404  0.6713162582274702   T   T   T
  0.2499998583723820  0.5000000056619005  0.7549670915019212   T   T   T
  0.5938451597572869  0.3749999928887859  0.7183056412007462   T   T   T
  0.4061550164452198  0.3750000009157445  0.7183057870811678   T   T   T

  0.00000000E+00  0.00000000E+00  0.00000000E+00
  0.00000000E+00  0.00000000E+00  0.00000000E+00
  0.00000000E+00  0.00000000E+00  0.00000000E+00
  0.00000000E+00  0.00000000E+00  0.00000000E+00
  0.00000000E+00  0.00000000E+00  0.00000000E+00
  0.00000000E+00  0.00000000E+00  0.00000000E+00
  0.00000000E+00  0.00000000E+00  0.00000000E+00
  0.00000000E+00  0.00000000E+00  0.00000000E+00
  0.00000000E+00  0.00000000E+00  0.00000000E+00
  0.00000000E+00  0.00000000E+00  0.00000000E+00
  0.00000000E+00  0.00000000E+00  0.00000000E+00
  0.00000000E+00  0.00000000E+00  0.00000000E+00
  0.00000000E+00  0.00000000E+00  0.00000000E+00
  0.00000000E+00  0.00000000E+00  0.00000000E+00
  0.00000000E+00  0.00000000E+00  0.00000000E+00
  0.00000000E+00  0.00000000E+00  0.00000000E+00
  0.00000000E+00  0.00000000E+00  0.00000000E+00
  0.00000000E+00  0.00000000E+00  0.00000000E+00
  0.00000000E+00  0.00000000E+00  0.00000000E+00
  0.00000000E+00  0.00000000E+00  0.00000000E+00
  0.00000000E+00  0.00000000E+00  0.00000000E+00
  0.00000000E+00  0.00000000E+00  0.00000000E+00
  0.00000000E+00  0.00000000E+00  0.00000000E+00
  0.00000000E+00  0.00000000E+00  0.00000000E+00
  0.00000000E+00  0.00000000E+00  0.00000000E+00
  0.00000000E+00  0.00000000E+00  0.00000000E+00
  0.00000000E+00  0.00000000E+00  0.00000000E+00
  0.00000000E+00  0.00000000E+00  0.00000000E+00
  0.00000000E+00  0.00000000E+00  0.00000000E+00
  0.00000000E+00  0.00000000E+00  0.00000000E+00
  0.00000000E+00  0.00000000E+00  0.00000000E+00
  0.00000000E+00  0.00000000E+00  0.00000000E+00
  0.00000000E+00  0.00000000E+00  0.00000000E+00
  0.00000000E+00  0.00000000E+00  0.00000000E+00
  0.00000000E+00  0.00000000E+00  0.00000000E+00
  0.00000000E+00  0.00000000E+00  0.00000000E+00
  0.00000000E+00  0.00000000E+00  0.00000000E+00
  0.00000000E+00  0.00000000E+00  0.00000000E+00
  0.00000000E+00  0.00000000E+00  0.00000000E+00
  0.00000000E+00  0.00000000E+00  0.00000000E+00
  0.00000000E+00  0.00000000E+00  0.00000000E+00
  0.00000000E+00  0.00000000E+00  0.00000000E+00
  0.00000000E+00  0.00000000E+00  0.00000000E+00
  0.00000000E+00  0.00000000E+00  0.00000000E+00
  0.00000000E+00  0.00000000E+00  0.00000000E+00
  0.00000000E+00  0.00000000E+00  0.00000000E+00
  0.00000000E+00  0.00000000E+00  0.00000000E+00
  0.00000000E+00  0.00000000E+00  0.00000000E+00
  0.00000000E+00  0.00000000E+00  0.00000000E+00
  0.00000000E+00  0.00000000E+00  0.00000000E+00
  0.00000000E+00  0.00000000E+00  0.00000000E+00
  0.00000000E+00  0.00000000E+00  0.00000000E+00
  0.00000000E+00  0.00000000E+00  0.00000000E+00
  0.00000000E+00  0.00000000E+00  0.00000000E+00
  0.00000000E+00  0.00000000E+00  0.00000000E+00
  0.00000000E+00  0.00000000E+00  0.00000000E+00
  0.00000000E+00  0.00000000E+00  0.00000000E+00
  0.00000000E+00  0.00000000E+00  0.00000000E+00
  0.00000000E+00  0.00000000E+00  0.00000000E+00
  0.00000000E+00  0.00000000E+00  0.00000000E+00
  0.00000000E+00  0.00000000E+00  0.00000000E+00
  0.00000000E+00  0.00000000E+00  0.00000000E+00
  0.00000000E+00  0.00000000E+00  0.00000000E+00
  0.00000000E+00  0.00000000E+00  0.00000000E+00
  0.00000000E+00  0.00000000E+00  0.00000000E+00
  0.00000000E+00  0.00000000E+00  0.00000000E+00
  0.00000000E+00  0.00000000E+00  0.00000000E+00
  0.00000000E+00  0.00000000E+00  0.00000000E+00
  0.00000000E+00  0.00000000E+00  0.00000000E+00
  0.00000000E+00  0.00000000E+00  0.00000000E+00
  0.00000000E+00  0.00000000E+00  0.00000000E+00
  0.00000000E+00  0.00000000E+00  0.00000000E+00
  0.00000000E+00  0.00000000E+00  0.00000000E+00
  0.00000000E+00  0.00000000E+00  0.00000000E+00
  0.00000000E+00  0.00000000E+00  0.00000000E+00
  0.00000000E+00  0.00000000E+00  0.00000000E+00
  0.00000000E+00  0.00000000E+00  0.00000000E+00
  0.00000000E+00  0.00000000E+00  0.00000000E+00
  0.00000000E+00  0.00000000E+00  0.00000000E+00
  0.00000000E+00  0.00000000E+00  0.00000000E+00
  0.00000000E+00  0.00000000E+00  0.00000000E+00
  0.00000000E+00  0.00000000E+00  0.00000000E+00
  0.00000000E+00  0.00000000E+00  0.00000000E+00
  0.00000000E+00  0.00000000E+00  0.00000000E+00
  0.00000000E+00  0.00000000E+00  0.00000000E+00
  0.00000000E+00  0.00000000E+00  0.00000000E+00
  0.00000000E+00  0.00000000E+00  0.00000000E+00
  0.00000000E+00  0.00000000E+00  0.00000000E+00
  0.00000000E+00  0.00000000E+00  0.00000000E+00
  0.00000000E+00  0.00000000E+00  0.00000000E+00
  0.00000000E+00  0.00000000E+00  0.00000000E+00
  0.00000000E+00  0.00000000E+00  0.00000000E+00
  0.00000000E+00  0.00000000E+00  0.00000000E+00
  0.00000000E+00  0.00000000E+00  0.00000000E+00
  0.00000000E+00  0.00000000E+00  0.00000000E+00
  0.00000000E+00  0.00000000E+00  0.00000000E+00
  0.00000000E+00  0.00000000E+00  0.00000000E+00
  0.00000000E+00  0.00000000E+00  0.00000000E+00
  0.00000000E+00  0.00000000E+00  0.00000000E+00
  0.00000000E+00  0.00000000E+00  0.00000000E+00
  0.00000000E+00  0.00000000E+00  0.00000000E+00
  0.00000000E+00  0.00000000E+00  0.00000000E+00
  0.00000000E+00  0.00000000E+00  0.00000000E+00
  0.00000000E+00  0.00000000E+00  0.00000000E+00
  0.00000000E+00  0.00000000E+00  0.00000000E+00
  0.00000000E+00  0.00000000E+00  0.00000000E+00
  0.00000000E+00  0.00000000E+00  0.00000000E+00
  0.00000000E+00  0.00000000E+00  0.00000000E+00
  0.00000000E+00  0.00000000E+00  0.00000000E+00
  0.00000000E+00  0.00000000E+00  0.00000000E+00
  0.00000000E+00  0.00000000E+00  0.00000000E+00
  0.00000000E+00  0.00000000E+00  0.00000000E+00
  0.00000000E+00  0.00000000E+00  0.00000000E+00
  0.00000000E+00  0.00000000E+00  0.00000000E+00
  0.00000000E+00  0.00000000E+00  0.00000000E+00
  0.00000000E+00  0.00000000E+00  0.00000000E+00
  0.00000000E+00  0.00000000E+00  0.00000000E+00
  0.00000000E+00  0.00000000E+00  0.00000000E+00
  0.00000000E+00  0.00000000E+00  0.00000000E+00
  0.00000000E+00  0.00000000E+00  0.00000000E+00
  0.00000000E+00  0.00000000E+00  0.00000000E+00
  0.00000000E+00  0.00000000E+00  0.00000000E+00
  0.00000000E+00  0.00000000E+00  0.00000000E+00
  0.00000000E+00  0.00000000E+00  0.00000000E+00
  0.00000000E+00  0.00000000E+00  0.00000000E+00
  0.00000000E+00  0.00000000E+00  0.00000000E+00
  0.00000000E+00  0.00000000E+00  0.00000000E+00
  0.00000000E+00  0.00000000E+00  0.00000000E+00
  0.00000000E+00  0.00000000E+00  0.00000000E+00
  0.00000000E+00  0.00000000E+00  0.00000000E+00
  0.00000000E+00  0.00000000E+00  0.00000000E+00
  0.00000000E+00  0.00000000E+00  0.00000000E+00
  0.00000000E+00  0.00000000E+00  0.00000000E+00
  0.00000000E+00  0.00000000E+00  0.00000000E+00
  0.00000000E+00  0.00000000E+00  0.00000000E+00
  0.00000000E+00  0.00000000E+00  0.00000000E+00
  0.00000000E+00  0.00000000E+00  0.00000000E+00
  0.00000000E+00  0.00000000E+00  0.00000000E+00
  0.00000000E+00  0.00000000E+00  0.00000000E+00
  0.00000000E+00  0.00000000E+00  0.00000000E+00
  0.00000000E+00  0.00000000E+00  0.00000000E+00
  0.00000000E+00  0.00000000E+00  0.00000000E+00
  0.00000000E+00  0.00000000E+00  0.00000000E+00
  0.00000000E+00  0.00000000E+00  0.00000000E+00
  0.00000000E+00  0.00000000E+00  0.00000000E+00
  0.00000000E+00  0.00000000E+00  0.00000000E+00
  0.00000000E+00  0.00000000E+00  0.00000000E+00
  0.00000000E+00  0.00000000E+00  0.00000000E+00
  0.00000000E+00  0.00000000E+00  0.00000000E+00
  0.00000000E+00  0.00000000E+00  0.00000000E+00
  0.00000000E+00  0.00000000E+00  0.00000000E+00
  0.00000000E+00  0.00000000E+00  0.00000000E+00
  0.00000000E+00  0.00000000E+00  0.00000000E+00
  0.00000000E+00  0.00000000E+00  0.00000000E+00
  0.00000000E+00  0.00000000E+00  0.00000000E+00
  0.00000000E+00  0.00000000E+00  0.00000000E+00
  0.00000000E+00  0.00000000E+00  0.00000000E+00
  0.00000000E+00  0.00000000E+00  0.00000000E+00
  0.00000000E+00  0.00000000E+00  0.00000000E+00
  0.00000000E+00  0.00000000E+00  0.00000000E+00
  0.00000000E+00  0.00000000E+00  0.00000000E+00
  0.00000000E+00  0.00000000E+00  0.00000000E+00
  0.00000000E+00  0.00000000E+00  0.00000000E+00
  0.00000000E+00  0.00000000E+00  0.00000000E+00
  0.00000000E+00  0.00000000E+00  0.00000000E+00
  0.00000000E+00  0.00000000E+00  0.00000000E+00
  0.00000000E+00  0.00000000E+00  0.00000000E+00
  0.00000000E+00  0.00000000E+00  0.00000000E+00
  0.00000000E+00  0.00000000E+00  0.00000000E+00
  0.00000000E+00  0.00000000E+00  0.00000000E+00
  0.00000000E+00  0.00000000E+00  0.00000000E+00
  0.00000000E+00  0.00000000E+00  0.00000000E+00
  0.00000000E+00  0.00000000E+00  0.00000000E+00
  0.00000000E+00  0.00000000E+00  0.00000000E+00
  0.00000000E+00  0.00000000E+00  0.00000000E+00
  0.00000000E+00  0.00000000E+00  0.00000000E+00
  0.00000000E+00  0.00000000E+00  0.00000000E+00
  0.00000000E+00  0.00000000E+00  0.00000000E+00
  0.00000000E+00  0.00000000E+00  0.00000000E+00
  0.00000000E+00  0.00000000E+00  0.00000000E+00
  0.00000000E+00  0.00000000E+00  0.00000000E+00
  0.00000000E+00  0.00000000E+00  0.00000000E+00
  0.00000000E+00  0.00000000E+00  0.00000000E+00
  0.00000000E+00  0.00000000E+00  0.00000000E+00
  0.00000000E+00  0.00000000E+00  0.00000000E+00
  0.00000000E+00  0.00000000E+00  0.00000000E+00
  0.00000000E+00  0.00000000E+00  0.00000000E+00
  0.00000000E+00  0.00000000E+00  0.00000000E+00
  0.00000000E+00  0.00000000E+00  0.00000000E+00
  0.00000000E+00  0.00000000E+00  0.00000000E+00
  0.00000000E+00  0.00000000E+00  0.00000000E+00
  0.00000000E+00  0.00000000E+00  0.00000000E+00
  0.00000000E+00  0.00000000E+00  0.00000000E+00
  0.00000000E+00  0.00000000E+00  0.00000000E+00
  0.00000000E+00  0.00000000E+00  0.00000000E+00
  0.00000000E+00  0.00000000E+00  0.00000000E+00
  0.00000000E+00  0.00000000E+00  0.00000000E+00
  0.00000000E+00  0.00000000E+00  0.00000000E+00
  0.00000000E+00  0.00000000E+00  0.00000000E+00
  0.00000000E+00  0.00000000E+00  0.00000000E+00
  0.00000000E+00  0.00000000E+00  0.00000000E+00
  0.00000000E+00  0.00000000E+00  0.00000000E+00
  0.00000000E+00  0.00000000E+00  0.00000000E+00
  0.00000000E+00  0.00000000E+00  0.00000000E+00
  0.00000000E+00  0.00000000E+00  0.00000000E+00
  0.00000000E+00  0.00000000E+00  0.00000000E+00
  0.00000000E+00  0.00000000E+00  0.00000000E+00
  0.00000000E+00  0.00000000E+00  0.00000000E+00
  0.00000000E+00  0.00000000E+00  0.00000000E+00
  0.00000000E+00  0.00000000E+00  0.00000000E+00
  0.00000000E+00  0.00000000E+00  0.00000000E+00
  0.00000000E+00  0.00000000E+00  0.00000000E+00
  0.00000000E+00  0.00000000E+00  0.00000000E+00
  0.00000000E+00  0.00000000E+00  0.00000000E+00
  0.00000000E+00  0.00000000E+00  0.00000000E+00
  0.00000000E+00  0.00000000E+00  0.00000000E+00
  0.00000000E+00  0.00000000E+00  0.00000000E+00
  0.00000000E+00  0.00000000E+00  0.00000000E+00
  0.00000000E+00  0.00000000E+00  0.00000000E+00
  0.00000000E+00  0.00000000E+00  0.00000000E+00
  0.00000000E+00  0.00000000E+00  0.00000000E+00
  0.00000000E+00  0.00000000E+00  0.00000000E+00
  0.00000000E+00  0.00000000E+00  0.00000000E+00
  0.00000000E+00  0.00000000E+00  0.00000000E+00
  0.00000000E+00  0.00000000E+00  0.00000000E+00
  0.00000000E+00  0.00000000E+00  0.00000000E+00
  0.00000000E+00  0.00000000E+00  0.00000000E+00
  0.00000000E+00  0.00000000E+00  0.00000000E+00
  0.00000000E+00  0.00000000E+00  0.00000000E+00
  0.00000000E+00  0.00000000E+00  0.00000000E+00
  0.00000000E+00  0.00000000E+00  0.00000000E+00
  0.00000000E+00  0.00000000E+00  0.00000000E+00
  0.00000000E+00  0.00000000E+00  0.00000000E+00
  0.00000000E+00  0.00000000E+00  0.00000000E+00
  0.00000000E+00  0.00000000E+00  0.00000000E+00
  0.00000000E+00  0.00000000E+00  0.00000000E+00
  0.00000000E+00  0.00000000E+00  0.00000000E+00
  0.00000000E+00  0.00000000E+00  0.00000000E+00
  0.00000000E+00  0.00000000E+00  0.00000000E+00
  0.00000000E+00  0.00000000E+00  0.00000000E+00
