Ti  O                                   
   1.00000000000000     
    13.2516807512607606    0.0000000000000000    0.0000000000000000
     0.0000000000000000   11.9814366131161503    0.0000000000000000
     0.0000000000000000    0.0000000000000000   30.8360084865216812
   Ti   O 
    80   160
Selective dynamics
Direct
  0.7500000000000000  0.6250000000000000  0.2851265225028570   F   F   F
  0.0000000000000000  0.7500000000000000  0.2851265225028570   F   F   F
  0.0000000000000000  0.6250000000000000  0.3925632612514249   F   F   F
  0.7500000000000000  0.7500000000000000  0.3925632612514249   F   F   F
  0.7500000000000000  0.6250000000000000  0.5000000000000000   F   F   F
  0.0000000000000000  0.7500000000000000  0.5000000000000000   F   F   F
  0.9908290981210355  0.6250077734656705  0.6052087052908409   T   T   T
  0.7429751127173435  0.7500003242783183  0.6121229903605599   T   T   T
  0.7508497482389987  0.6249950774491915  0.7223531011087521   T   T   T
  0.0007432202819955  0.7500045368960362  0.7099802556626200   T   T   T
  0.7500000000000000  0.8750000000000000  0.2851265225028570   F   F   F
  0.0000000000000000  0.0000000000000000  0.2851265225028570   F   F   F
  0.0000000000000000  0.8750000000000000  0.3925632612514249   F   F   F
  0.7500000000000000  0.0000000000000000  0.3925632612514249   F   F   F
  0.7500000000000000  0.8750000000000000  0.5000000000000000   F   F   F
  0.0000000000000000  0.0000000000000000  0.5000000000000000   F   F   F
  0.9908218874216339  0.8750040556902657  0.6052188760143625   T   T   T
  0.7429876863041839  0.0000053513524694  0.6121265815580861   T   T   T
  0.7508517430383459  0.8750015312873348  0.7223709986453200   T   T   T
  0.0007248303529466 -0.0000008193547522  0.7099792318883533   T   T   T
  0.7500000000000000  0.1250000000000000  0.2851265225028570   F   F   F
  0.0000000000000000  0.2500000000000000  0.2851265225028570   F   F   F
  0.0000000000000000  0.1250000000000000  0.3925632612514249   F   F   F
  0.7500000000000000  0.2500000000000000  0.3925632612514249   F   F   F
  0.7500000000000000  0.1250000000000000  0.5000000000000000   F   F   F
  0.0000000000000000  0.2500000000000000  0.5000000000000000   F   F   F
  0.9908550295690084  0.1249909079507569  0.6052168050817620   T   T   T
  0.7430219350470501  0.2500002286000536  0.6121249970594071   T   T   T
  0.7508163153514761  0.1249966867130056  0.7223735253640038   T   T   T
  0.0006970690141749  0.2499942152954072  0.7099779514666404   T   T   T
  0.7500000000000000  0.3750000000000000  0.2851265225028570   F   F   F
  0.0000000000000000  0.5000000000000000  0.2851265225028570   F   F   F
  0.0000000000000000  0.3750000000000000  0.3925632612514249   F   F   F
  0.7500000000000000  0.5000000000000000  0.3925632612514249   F   F   F
  0.7500000000000000  0.3750000000000000  0.5000000000000000   F   F   F
  0.0000000000000000  0.5000000000000000  0.5000000000000000   F   F   F
  0.9908609320699572  0.3749961602972113  0.6052076026616625   T   T   T
  0.7430066914995682  0.4999951174403124  0.6121151300623576   T   T   T
  0.7508148290864823  0.3750133247481000  0.7223558167007182   T   T   T
  0.0007216918336323  0.4999992538274706  0.7099755308175451   T   T   T
  0.2500000000000000  0.6250000000000000  0.2851265225028570   F   F   F
  0.5000000000000000  0.7500000000000000  0.2851265225028570   F   F   F
  0.5000000000000000  0.6250000000000000  0.3925632612514249   F   F   F
  0.2500000000000000  0.7500000000000000  0.3925632612514249   F   F   F
  0.2500000000000000  0.6250000000000000  0.5000000000000000   F   F   F
  0.5000000000000000  0.7500000000000000  0.5000000000000000   F   F   F
  0.4908152965778612  0.6250049796112924  0.6051899745165604   T   T   T
  0.2429656463002626  0.7500151298718472  0.6121258096814027   T   T   T
  0.2508530225643337  0.6249888192329669  0.7223575914702327   T   T   T
  0.5007511172751677  0.7499805933665361  0.7099580576282887   T   T   T
  0.2500000000000000  0.8750000000000000  0.2851265225028570   F   F   F
  0.5000000000000000  0.0000000000000000  0.2851265225028570   F   F   F
  0.5000000000000000  0.8750000000000000  0.3925632612514249   F   F   F
  0.2500000000000000  0.0000000000000000  0.3925632612514249   F   F   F
  0.2500000000000000  0.8750000000000000  0.5000000000000000   F   F   F
  0.5000000000000000  0.0000000000000000  0.5000000000000000   F   F   F
  0.4908336364816365  0.8749936240782739  0.6052087427547704   T   T   T
  0.2430104705518266  0.0000027750831204  0.6121276173576482   T   T   T
  0.2508586709771340  0.8749950252985172  0.7223731183186445   T   T   T
  0.5007187912346084  0.0000001445593215  0.7099496484841697   T   T   T
  0.2500000000000000  0.1250000000000000  0.2851265225028570   F   F   F
  0.5000000000000000  0.2500000000000000  0.2851265225028570   F   F   F
  0.5000000000000000  0.1250000000000000  0.3925632612514249   F   F   F
  0.2500000000000000  0.2500000000000000  0.3925632612514249   F   F   F
  0.2500000000000000  0.1250000000000000  0.5000000000000000   F   F   F
  0.5000000000000000  0.2500000000000000  0.5000000000000000   F   F   F
  0.4908633597025069  0.1250029977855888  0.6052077949735525   T   T   T
  0.2430093731069840  0.2499832219567702  0.6121238683790334   T   T   T
  0.2508220467924980  0.1249916562926847  0.7223709548642220   T   T   T
  0.5007060173643535  0.2500186012872024  0.7099559826088078   T   T   T
  0.2500000000000000  0.3750000000000000  0.2851265225028570   F   F   F
  0.5000000000000000  0.5000000000000000  0.2851265225028570   F   F   F
  0.5000000000000000  0.3750000000000000  0.3925632612514249   F   F   F
  0.2500000000000000  0.5000000000000000  0.3925632612514249   F   F   F
  0.2500000000000000  0.3750000000000000  0.5000000000000000   F   F   F
  0.5000000000000000  0.5000000000000000  0.5000000000000000   F   F   F
  0.4908464152854754  0.3749985438740115  0.6051879909929571   T   T   T
  0.2429659625636759  0.4999960056233365  0.6121170531860679   T   T   T
  0.2508183732173123  0.3750066928905256  0.7223553272425781   T   T   T
  0.5007175910299826  0.4999995566874295  0.7099361104042754   T   T   T
  0.7500000000000000  0.7500000000000000  0.2432221408707349   F   F   F
  0.7500000000000000  0.7500000000000000  0.3270309041349719   F   F   F
  0.0975094323418162  0.6250000000000000  0.2851265225028570   F   F   F
  0.9024905676581838  0.6250000000000000  0.2851265225028570   F   F   F
  0.0000000000000000  0.7500000000000000  0.3506588796193100   F   F   F
  0.0000000000000000  0.7500000000000000  0.4344676428835470   F   F   F
  0.8475094323418233  0.6250000000000000  0.3925632612514249   F   F   F
  0.1524905676581767  0.6250000000000000  0.3925632612514249   F   F   F
  0.7500000000000000  0.7500000000000000  0.4580956183678779   F   F   F
  0.7500000000000000  0.7500000000000000  0.5419043816321221   F   F   F
  0.0975094323418162  0.6250000000000000  0.5000000000000000   F   F   F
  0.9024905676581767  0.6250000000000000  0.5000000000000000   F   F   F
  0.9999910571416034  0.7500170016515703  0.5663813676992177   T   T   T
  0.0000694920515298  0.7499944861053941  0.6505125013508476   T   T   T
  0.8500088827178123  0.6250148551483086  0.6080291749662351   T   T   T
  0.1511404499361281  0.6250088757410232  0.6084303708053184   T   T   T
  0.7501493998010702  0.7500085094438264  0.6731525021252592   T   T   T
  0.7505295975935050  0.7499886771905228  0.7574948664270036   T   T   T
  0.0942204005109909  0.6249945068840730  0.7206865084206859   T   T   T
  0.9068666595322791  0.6249985474169133  0.7207578326434652   T   T   T
  0.7500000000000000  0.0000000000000000  0.2432221408707349   F   F   F
  0.7500000000000000  0.0000000000000000  0.3270309041349719   F   F   F
  0.0975094323418162  0.8750000000000000  0.2851265225028570   F   F   F
  0.9024905676581838  0.8750000000000000  0.2851265225028570   F   F   F
  0.0000000000000000  0.0000000000000000  0.3506588796193100   F   F   F
  0.0000000000000000  0.0000000000000000  0.4344676428835470   F   F   F
  0.8475094323418233  0.8750000000000000  0.3925632612514249   F   F   F
  0.1524905676581767  0.8750000000000000  0.3925632612514249   F   F   F
  0.7500000000000000  0.0000000000000000  0.4580956183678779   F   F   F
  0.7500000000000000  0.0000000000000000  0.5419043816321221   F   F   F
  0.0975094323418162  0.8750000000000000  0.5000000000000000   F   F   F
  0.9024905676581767  0.8750000000000000  0.5000000000000000   F   F   F
 -0.0000073136795811  0.9999989467488763  0.5663824586976649   T   T   T
  0.0000753118646081 -0.0000028591544306  0.6505111717905742   T   T   T
  0.8499969902857005  0.8750214139033895  0.6080485102950116   T   T   T
  0.1511495745451991  0.8750142132184917  0.6084507104063694   T   T   T
  0.7500886762414313 -0.0000020918945775  0.6731587240767735   T   T   T
  0.7505617499869252 -0.0000000527372675  0.7575089730621701   T   T   T
  0.0942282562977414  0.8749980938364829  0.7206779786827213   T   T   T
  0.9068594825633253  0.8749968830618968  0.7207498780822582   T   T   T
  0.7500000000000000  0.2500000000000000  0.2432221408707349   F   F   F
  0.7500000000000000  0.2500000000000000  0.3270309041349719   F   F   F
  0.0975094323418162  0.1250000000000000  0.2851265225028570   F   F   F
  0.9024905676581838  0.1250000000000000  0.2851265225028570   F   F   F
  0.0000000000000000  0.2500000000000000  0.3506588796193100   F   F   F
  0.0000000000000000  0.2500000000000000  0.4344676428835470   F   F   F
  0.8475094323418233  0.1250000000000000  0.3925632612514249   F   F   F
  0.1524905676581767  0.1250000000000000  0.3925632612514249   F   F   F
  0.7500000000000000  0.2500000000000000  0.4580956183678779   F   F   F
  0.7500000000000000  0.2500000000000000  0.5419043816321221   F   F   F
  0.0975094323418162  0.1250000000000000  0.5000000000000000   F   F   F
  0.9024905676581767  0.1250000000000000  0.5000000000000000   F   F   F
 -0.0000031811045451  0.2499820673151157  0.5663814158988837   T   T   T
  0.0000764302267628  0.2500049281116082  0.6505110581368544   T   T   T
  0.8500059574441908  0.1249800685334856  0.6080507315625802   T   T   T
  0.1511539144707901  0.1249833375860173  0.6084456351995630   T   T   T
  0.7501318572551898  0.2499941356999883  0.6731507689914263   T   T   T
  0.7505306850029072  0.2500121516767979  0.7574952953735162   T   T   T
  0.0942139500156781  0.1250014389573525  0.7206833085732045   T   T   T
  0.9068447777783609  0.1249989428723645  0.7207394573208630   T   T   T
  0.7500000000000000  0.5000000000000000  0.2432221408707349   F   F   F
  0.7500000000000000  0.5000000000000000  0.3270309041349719   F   F   F
  0.0975094323418162  0.3750000000000000  0.2851265225028570   F   F   F
  0.9024905676581838  0.3750000000000000  0.2851265225028570   F   F   F
  0.0000000000000000  0.5000000000000000  0.3506588796193100   F   F   F
  0.0000000000000000  0.5000000000000000  0.4344676428835470   F   F   F
  0.8475094323418233  0.3750000000000000  0.3925632612514249   F   F   F
  0.1524905676581767  0.3750000000000000  0.3925632612514249   F   F   F
  0.7500000000000000  0.5000000000000000  0.4580956183678779   F   F   F
  0.7500000000000000  0.5000000000000000  0.5419043816321221   F   F   F
  0.0975094323418162  0.3750000000000000  0.5000000000000000   F   F   F
  0.9024905676581767  0.3750000000000000  0.5000000000000000   F   F   F
 -0.0000054834640056  0.5000006134162231  0.5663789389411915   T   T   T
  0.0000713064970602  0.5000017929430119  0.6505100450467045   T   T   T
  0.8500186734403034  0.3749826547110277  0.6080298092107912   T   T   T
  0.1511445428241793  0.3749917407449023  0.6084255729793812   T   T   T
  0.7502043891715245  0.4999972415453912  0.6731421070217615   T   T   T
  0.7504982175822371  0.5000022130634522  0.7574883360716282   T   T   T
  0.0942087307672686  0.3750018480359137  0.7206878276303633   T   T   T
  0.9068547614898168  0.3750037361843802  0.7207523492036452   T   T   T
  0.2500000000000000  0.7500000000000000  0.2432221408707349   F   F   F
  0.2500000000000000  0.7500000000000000  0.3270309041349719   F   F   F
  0.5975094323418162  0.6250000000000000  0.2851265225028570   F   F   F
  0.4024905676581838  0.6250000000000000  0.2851265225028570   F   F   F
  0.5000000000000000  0.7500000000000000  0.3506588796193100   F   F   F
  0.5000000000000000  0.7500000000000000  0.4344676428835470   F   F   F
  0.3475094323418162  0.6250000000000000  0.3925632612514249   F   F   F
  0.6524905676581767  0.6250000000000000  0.3925632612514249   F   F   F
  0.2500000000000000  0.7500000000000000  0.4580956183678779   F   F   F
  0.2500000000000000  0.7500000000000000  0.5419043816321221   F   F   F
  0.5975094323418162  0.6250000000000000  0.5000000000000000   F   F   F
  0.4024905676581767  0.6250000000000000  0.5000000000000000   F   F   F
  0.4999857135407954  0.7500211755120536  0.5663686589063361   T   T   T
  0.5000701303371419  0.7499943861262655  0.6504970662227320   T   T   T
  0.3500010774562243  0.6250072325843544  0.6080522921535692   T   T   T
  0.6511500850653612  0.6250047097693182  0.6084540311508897   T   T   T
  0.2500955436652044  0.7500051120984795  0.6731523951316520   T   T   T
  0.2505708604285078  0.7499860365778150  0.7574991369354344   T   T   T
  0.5942423288884011  0.6249792573663889  0.7206391355394476   T   T   T
  0.4068471257126290  0.6249791958896965  0.7207173811448786   T   T   T
  0.2500000000000000  0.0000000000000000  0.2432221408707349   F   F   F
  0.2500000000000000  0.0000000000000000  0.3270309041349719   F   F   F
  0.5975094323418162  0.8750000000000000  0.2851265225028570   F   F   F
  0.4024905676581838  0.8750000000000000  0.2851265225028570   F   F   F
  0.5000000000000000  0.0000000000000000  0.3506588796193100   F   F   F
  0.5000000000000000  0.0000000000000000  0.4344676428835470   F   F   F
  0.3475094323418162  0.8750000000000000  0.3925632612514249   F   F   F
  0.6524905676581767  0.8750000000000000  0.3925632612514249   F   F   F
  0.2500000000000000  0.0000000000000000  0.4580956183678779   F   F   F
  0.2500000000000000  0.0000000000000000  0.5419043816321221   F   F   F
  0.5975094323418162  0.8750000000000000  0.5000000000000000   F   F   F
  0.4024905676581767  0.8750000000000000  0.5000000000000000   F   F   F
  0.4999979954867203  0.9999986863427518  0.5663703602817733   T   T   T
  0.5000732902755893 -0.0000020964199987  0.6504926872805181   T   T   T
  0.3499945160946034  0.8749972900774685  0.6080367967202263   T   T   T
  0.6511501654371040  0.8750011581920724  0.6084397612112667   T   T   T
  0.2501332008712484  0.0000007563261578  0.6731589256447924   T   T   T
  0.2505448978455087  0.0000000497956114  0.7575094760581461   T   T   T
  0.5942233234191303  0.8750042871172875  0.7206610667137809   T   T   T
  0.4068579667624009  0.8750024783263184  0.7207320345184044   T   T   T
  0.2500000000000000  0.2500000000000000  0.2432221408707349   F   F   F
  0.2500000000000000  0.2500000000000000  0.3270309041349719   F   F   F
  0.5975094323418162  0.1250000000000000  0.2851265225028570   F   F   F
  0.4024905676581838  0.1250000000000000  0.2851265225028570   F   F   F
  0.5000000000000000  0.2500000000000000  0.3506588796193100   F   F   F
  0.5000000000000000  0.2500000000000000  0.4344676428835470   F   F   F
  0.3475094323418162  0.1250000000000000  0.3925632612514249   F   F   F
  0.6524905676581767  0.1250000000000000  0.3925632612514249   F   F   F
  0.2500000000000000  0.2500000000000000  0.4580956183678779   F   F   F
  0.2500000000000000  0.2500000000000000  0.5419043816321221   F   F   F
  0.5975094323418162  0.1250000000000000  0.5000000000000000   F   F   F
  0.4024905676581767  0.1250000000000000  0.5000000000000000   F   F   F
  0.4999924211042392  0.2499791761717243  0.5663687198862627   T   T   T
  0.5000839174043112  0.2500050198956329  0.6504956344520211   T   T   T
  0.3500041358169309  0.1250045137375153  0.6080367071928166   T   T   T
  0.6511560983389900  0.1249988741896844  0.6084363755375936   T   T   T
  0.2500747799544773  0.2499919450625180  0.6731464621934128   T   T   T
  0.2505721238502319  0.2500095136693146  0.7574943211812072   T   T   T
  0.5942113026876489  0.1249949416585133  0.7206668516877890   T   T   T
  0.4068451604934342  0.1249952211160205  0.7207224425250690   T   T   T
  0.2500000000000000  0.5000000000000000  0.2432221408707349   F   F   F
  0.2500000000000000  0.5000000000000000  0.3270309041349719   F   F   F
  0.5975094323418162  0.3750000000000000  0.2851265225028570   F   F   F
  0.4024905676581838  0.3750000000000000  0.2851265225028570   F   F   F
  0.5000000000000000  0.5000000000000000  0.3506588796193100   F   F   F
  0.5000000000000000  0.5000000000000000  0.4344676428835470   F   F   F
  0.3475094323418162  0.3750000000000000  0.3925632612514249   F   F   F
  0.6524905676581767  0.3750000000000000  0.3925632612514249   F   F   F
  0.2500000000000000  0.5000000000000000  0.4580956183678779   F   F   F
  0.2500000000000000  0.5000000000000000  0.5419043816321221   F   F   F
  0.5975094323418162  0.3750000000000000  0.5000000000000000   F   F   F
  0.4024905676581767  0.3750000000000000  0.5000000000000000   F   F   F
  0.4999769391626863  0.5000005796500678  0.5663465856362402   T   T   T
  0.5000868568649471  0.5000024113457964  0.6504813620607334   T   T   T
  0.3500105383308371  0.3749911929578826  0.6080537246079676   T   T   T
  0.6511561527583046  0.3749950914844799  0.6084503919608598   T   T   T
  0.2500281908731066  0.5000040188328986  0.6731397025899891   T   T   T
  0.2506053163812839  0.4999945581336066  0.7574895870041100   T   T   T
  0.5942254129380009  0.3750210020906577  0.7206497739468407   T   T   T
  0.4068296092271675  0.3750199256099316  0.7207019761810071   T   T   T
 
  0.00000000E+00  0.00000000E+00  0.00000000E+00
  0.00000000E+00  0.00000000E+00  0.00000000E+00
  0.00000000E+00  0.00000000E+00  0.00000000E+00
  0.00000000E+00  0.00000000E+00  0.00000000E+00
  0.00000000E+00  0.00000000E+00  0.00000000E+00
  0.00000000E+00  0.00000000E+00  0.00000000E+00
  0.00000000E+00  0.00000000E+00  0.00000000E+00
  0.00000000E+00  0.00000000E+00  0.00000000E+00
  0.00000000E+00  0.00000000E+00  0.00000000E+00
  0.00000000E+00  0.00000000E+00  0.00000000E+00
  0.00000000E+00  0.00000000E+00  0.00000000E+00
  0.00000000E+00  0.00000000E+00  0.00000000E+00
  0.00000000E+00  0.00000000E+00  0.00000000E+00
  0.00000000E+00  0.00000000E+00  0.00000000E+00
  0.00000000E+00  0.00000000E+00  0.00000000E+00
  0.00000000E+00  0.00000000E+00  0.00000000E+00
  0.00000000E+00  0.00000000E+00  0.00000000E+00
  0.00000000E+00  0.00000000E+00  0.00000000E+00
  0.00000000E+00  0.00000000E+00  0.00000000E+00
  0.00000000E+00  0.00000000E+00  0.00000000E+00
  0.00000000E+00  0.00000000E+00  0.00000000E+00
  0.00000000E+00  0.00000000E+00  0.00000000E+00
  0.00000000E+00  0.00000000E+00  0.00000000E+00
  0.00000000E+00  0.00000000E+00  0.00000000E+00
  0.00000000E+00  0.00000000E+00  0.00000000E+00
  0.00000000E+00  0.00000000E+00  0.00000000E+00
  0.00000000E+00  0.00000000E+00  0.00000000E+00
  0.00000000E+00  0.00000000E+00  0.00000000E+00
  0.00000000E+00  0.00000000E+00  0.00000000E+00
  0.00000000E+00  0.00000000E+00  0.00000000E+00
  0.00000000E+00  0.00000000E+00  0.00000000E+00
  0.00000000E+00  0.00000000E+00  0.00000000E+00
  0.00000000E+00  0.00000000E+00  0.00000000E+00
  0.00000000E+00  0.00000000E+00  0.00000000E+00
  0.00000000E+00  0.00000000E+00  0.00000000E+00
  0.00000000E+00  0.00000000E+00  0.00000000E+00
  0.00000000E+00  0.00000000E+00  0.00000000E+00
  0.00000000E+00  0.00000000E+00  0.00000000E+00
  0.00000000E+00  0.00000000E+00  0.00000000E+00
  0.00000000E+00  0.00000000E+00  0.00000000E+00
  0.00000000E+00  0.00000000E+00  0.00000000E+00
  0.00000000E+00  0.00000000E+00  0.00000000E+00
  0.00000000E+00  0.00000000E+00  0.00000000E+00
  0.00000000E+00  0.00000000E+00  0.00000000E+00
  0.00000000E+00  0.00000000E+00  0.00000000E+00
  0.00000000E+00  0.00000000E+00  0.00000000E+00
  0.00000000E+00  0.00000000E+00  0.00000000E+00
  0.00000000E+00  0.00000000E+00  0.00000000E+00
  0.00000000E+00  0.00000000E+00  0.00000000E+00
  0.00000000E+00  0.00000000E+00  0.00000000E+00
  0.00000000E+00  0.00000000E+00  0.00000000E+00
  0.00000000E+00  0.00000000E+00  0.00000000E+00
  0.00000000E+00  0.00000000E+00  0.00000000E+00
  0.00000000E+00  0.00000000E+00  0.00000000E+00
  0.00000000E+00  0.00000000E+00  0.00000000E+00
  0.00000000E+00  0.00000000E+00  0.00000000E+00
  0.00000000E+00  0.00000000E+00  0.00000000E+00
  0.00000000E+00  0.00000000E+00  0.00000000E+00
  0.00000000E+00  0.00000000E+00  0.00000000E+00
  0.00000000E+00  0.00000000E+00  0.00000000E+00
  0.00000000E+00  0.00000000E+00  0.00000000E+00
  0.00000000E+00  0.00000000E+00  0.00000000E+00
  0.00000000E+00  0.00000000E+00  0.00000000E+00
  0.00000000E+00  0.00000000E+00  0.00000000E+00
  0.00000000E+00  0.00000000E+00  0.00000000E+00
  0.00000000E+00  0.00000000E+00  0.00000000E+00
  0.00000000E+00  0.00000000E+00  0.00000000E+00
  0.00000000E+00  0.00000000E+00  0.00000000E+00
  0.00000000E+00  0.00000000E+00  0.00000000E+00
  0.00000000E+00  0.00000000E+00  0.00000000E+00
  0.00000000E+00  0.00000000E+00  0.00000000E+00
  0.00000000E+00  0.00000000E+00  0.00000000E+00
  0.00000000E+00  0.00000000E+00  0.00000000E+00
  0.00000000E+00  0.00000000E+00  0.00000000E+00
  0.00000000E+00  0.00000000E+00  0.00000000E+00
  0.00000000E+00  0.00000000E+00  0.00000000E+00
  0.00000000E+00  0.00000000E+00  0.00000000E+00
  0.00000000E+00  0.00000000E+00  0.00000000E+00
  0.00000000E+00  0.00000000E+00  0.00000000E+00
  0.00000000E+00  0.00000000E+00  0.00000000E+00
  0.00000000E+00  0.00000000E+00  0.00000000E+00
  0.00000000E+00  0.00000000E+00  0.00000000E+00
  0.00000000E+00  0.00000000E+00  0.00000000E+00
  0.00000000E+00  0.00000000E+00  0.00000000E+00
  0.00000000E+00  0.00000000E+00  0.00000000E+00
  0.00000000E+00  0.00000000E+00  0.00000000E+00
  0.00000000E+00  0.00000000E+00  0.00000000E+00
  0.00000000E+00  0.00000000E+00  0.00000000E+00
  0.00000000E+00  0.00000000E+00  0.00000000E+00
  0.00000000E+00  0.00000000E+00  0.00000000E+00
  0.00000000E+00  0.00000000E+00  0.00000000E+00
  0.00000000E+00  0.00000000E+00  0.00000000E+00
  0.00000000E+00  0.00000000E+00  0.00000000E+00
  0.00000000E+00  0.00000000E+00  0.00000000E+00
  0.00000000E+00  0.00000000E+00  0.00000000E+00
  0.00000000E+00  0.00000000E+00  0.00000000E+00
  0.00000000E+00  0.00000000E+00  0.00000000E+00
  0.00000000E+00  0.00000000E+00  0.00000000E+00
  0.00000000E+00  0.00000000E+00  0.00000000E+00
  0.00000000E+00  0.00000000E+00  0.00000000E+00
  0.00000000E+00  0.00000000E+00  0.00000000E+00
  0.00000000E+00  0.00000000E+00  0.00000000E+00
  0.00000000E+00  0.00000000E+00  0.00000000E+00
  0.00000000E+00  0.00000000E+00  0.00000000E+00
  0.00000000E+00  0.00000000E+00  0.00000000E+00
  0.00000000E+00  0.00000000E+00  0.00000000E+00
  0.00000000E+00  0.00000000E+00  0.00000000E+00
  0.00000000E+00  0.00000000E+00  0.00000000E+00
  0.00000000E+00  0.00000000E+00  0.00000000E+00
  0.00000000E+00  0.00000000E+00  0.00000000E+00
  0.00000000E+00  0.00000000E+00  0.00000000E+00
  0.00000000E+00  0.00000000E+00  0.00000000E+00
  0.00000000E+00  0.00000000E+00  0.00000000E+00
  0.00000000E+00  0.00000000E+00  0.00000000E+00
  0.00000000E+00  0.00000000E+00  0.00000000E+00
  0.00000000E+00  0.00000000E+00  0.00000000E+00
  0.00000000E+00  0.00000000E+00  0.00000000E+00
  0.00000000E+00  0.00000000E+00  0.00000000E+00
  0.00000000E+00  0.00000000E+00  0.00000000E+00
  0.00000000E+00  0.00000000E+00  0.00000000E+00
  0.00000000E+00  0.00000000E+00  0.00000000E+00
  0.00000000E+00  0.00000000E+00  0.00000000E+00
  0.00000000E+00  0.00000000E+00  0.00000000E+00
  0.00000000E+00  0.00000000E+00  0.00000000E+00
  0.00000000E+00  0.00000000E+00  0.00000000E+00
  0.00000000E+00  0.00000000E+00  0.00000000E+00
  0.00000000E+00  0.00000000E+00  0.00000000E+00
  0.00000000E+00  0.00000000E+00  0.00000000E+00
  0.00000000E+00  0.00000000E+00  0.00000000E+00
  0.00000000E+00  0.00000000E+00  0.00000000E+00
  0.00000000E+00  0.00000000E+00  0.00000000E+00
  0.00000000E+00  0.00000000E+00  0.00000000E+00
  0.00000000E+00  0.00000000E+00  0.00000000E+00
  0.00000000E+00  0.00000000E+00  0.00000000E+00
  0.00000000E+00  0.00000000E+00  0.00000000E+00
  0.00000000E+00  0.00000000E+00  0.00000000E+00
  0.00000000E+00  0.00000000E+00  0.00000000E+00
  0.00000000E+00  0.00000000E+00  0.00000000E+00
  0.00000000E+00  0.00000000E+00  0.00000000E+00
  0.00000000E+00  0.00000000E+00  0.00000000E+00
  0.00000000E+00  0.00000000E+00  0.00000000E+00
  0.00000000E+00  0.00000000E+00  0.00000000E+00
  0.00000000E+00  0.00000000E+00  0.00000000E+00
  0.00000000E+00  0.00000000E+00  0.00000000E+00
  0.00000000E+00  0.00000000E+00  0.00000000E+00
  0.00000000E+00  0.00000000E+00  0.00000000E+00
  0.00000000E+00  0.00000000E+00  0.00000000E+00
  0.00000000E+00  0.00000000E+00  0.00000000E+00
  0.00000000E+00  0.00000000E+00  0.00000000E+00
  0.00000000E+00  0.00000000E+00  0.00000000E+00
  0.00000000E+00  0.00000000E+00  0.00000000E+00
  0.00000000E+00  0.00000000E+00  0.00000000E+00
  0.00000000E+00  0.00000000E+00  0.00000000E+00
  0.00000000E+00  0.00000000E+00  0.00000000E+00
  0.00000000E+00  0.00000000E+00  0.00000000E+00
  0.00000000E+00  0.00000000E+00  0.00000000E+00
  0.00000000E+00  0.00000000E+00  0.00000000E+00
  0.00000000E+00  0.00000000E+00  0.00000000E+00
  0.00000000E+00  0.00000000E+00  0.00000000E+00
  0.00000000E+00  0.00000000E+00  0.00000000E+00
  0.00000000E+00  0.00000000E+00  0.00000000E+00
  0.00000000E+00  0.00000000E+00  0.00000000E+00
  0.00000000E+00  0.00000000E+00  0.00000000E+00
  0.00000000E+00  0.00000000E+00  0.00000000E+00
  0.00000000E+00  0.00000000E+00  0.00000000E+00
  0.00000000E+00  0.00000000E+00  0.00000000E+00
  0.00000000E+00  0.00000000E+00  0.00000000E+00
  0.00000000E+00  0.00000000E+00  0.00000000E+00
  0.00000000E+00  0.00000000E+00  0.00000000E+00
  0.00000000E+00  0.00000000E+00  0.00000000E+00
  0.00000000E+00  0.00000000E+00  0.00000000E+00
  0.00000000E+00  0.00000000E+00  0.00000000E+00
  0.00000000E+00  0.00000000E+00  0.00000000E+00
  0.00000000E+00  0.00000000E+00  0.00000000E+00
  0.00000000E+00  0.00000000E+00  0.00000000E+00
  0.00000000E+00  0.00000000E+00  0.00000000E+00
  0.00000000E+00  0.00000000E+00  0.00000000E+00
  0.00000000E+00  0.00000000E+00  0.00000000E+00
  0.00000000E+00  0.00000000E+00  0.00000000E+00
  0.00000000E+00  0.00000000E+00  0.00000000E+00
  0.00000000E+00  0.00000000E+00  0.00000000E+00
  0.00000000E+00  0.00000000E+00  0.00000000E+00
  0.00000000E+00  0.00000000E+00  0.00000000E+00
  0.00000000E+00  0.00000000E+00  0.00000000E+00
  0.00000000E+00  0.00000000E+00  0.00000000E+00
  0.00000000E+00  0.00000000E+00  0.00000000E+00
  0.00000000E+00  0.00000000E+00  0.00000000E+00
  0.00000000E+00  0.00000000E+00  0.00000000E+00
  0.00000000E+00  0.00000000E+00  0.00000000E+00
  0.00000000E+00  0.00000000E+00  0.00000000E+00
  0.00000000E+00  0.00000000E+00  0.00000000E+00
  0.00000000E+00  0.00000000E+00  0.00000000E+00
  0.00000000E+00  0.00000000E+00  0.00000000E+00
  0.00000000E+00  0.00000000E+00  0.00000000E+00
  0.00000000E+00  0.00000000E+00  0.00000000E+00
  0.00000000E+00  0.00000000E+00  0.00000000E+00
  0.00000000E+00  0.00000000E+00  0.00000000E+00
  0.00000000E+00  0.00000000E+00  0.00000000E+00
  0.00000000E+00  0.00000000E+00  0.00000000E+00
  0.00000000E+00  0.00000000E+00  0.00000000E+00
  0.00000000E+00  0.00000000E+00  0.00000000E+00
  0.00000000E+00  0.00000000E+00  0.00000000E+00
  0.00000000E+00  0.00000000E+00  0.00000000E+00
  0.00000000E+00  0.00000000E+00  0.00000000E+00
  0.00000000E+00  0.00000000E+00  0.00000000E+00
  0.00000000E+00  0.00000000E+00  0.00000000E+00
  0.00000000E+00  0.00000000E+00  0.00000000E+00
  0.00000000E+00  0.00000000E+00  0.00000000E+00
  0.00000000E+00  0.00000000E+00  0.00000000E+00
  0.00000000E+00  0.00000000E+00  0.00000000E+00
  0.00000000E+00  0.00000000E+00  0.00000000E+00
  0.00000000E+00  0.00000000E+00  0.00000000E+00
  0.00000000E+00  0.00000000E+00  0.00000000E+00
  0.00000000E+00  0.00000000E+00  0.00000000E+00
  0.00000000E+00  0.00000000E+00  0.00000000E+00
  0.00000000E+00  0.00000000E+00  0.00000000E+00
  0.00000000E+00  0.00000000E+00  0.00000000E+00
  0.00000000E+00  0.00000000E+00  0.00000000E+00
  0.00000000E+00  0.00000000E+00  0.00000000E+00
  0.00000000E+00  0.00000000E+00  0.00000000E+00
  0.00000000E+00  0.00000000E+00  0.00000000E+00
  0.00000000E+00  0.00000000E+00  0.00000000E+00
  0.00000000E+00  0.00000000E+00  0.00000000E+00
  0.00000000E+00  0.00000000E+00  0.00000000E+00
  0.00000000E+00  0.00000000E+00  0.00000000E+00
  0.00000000E+00  0.00000000E+00  0.00000000E+00
  0.00000000E+00  0.00000000E+00  0.00000000E+00
  0.00000000E+00  0.00000000E+00  0.00000000E+00
  0.00000000E+00  0.00000000E+00  0.00000000E+00
  0.00000000E+00  0.00000000E+00  0.00000000E+00
  0.00000000E+00  0.00000000E+00  0.00000000E+00
  0.00000000E+00  0.00000000E+00  0.00000000E+00
  0.00000000E+00  0.00000000E+00  0.00000000E+00
  0.00000000E+00  0.00000000E+00  0.00000000E+00
  0.00000000E+00  0.00000000E+00  0.00000000E+00
  0.00000000E+00  0.00000000E+00  0.00000000E+00
  0.00000000E+00  0.00000000E+00  0.00000000E+00
  0.00000000E+00  0.00000000E+00  0.00000000E+00
  0.00000000E+00  0.00000000E+00  0.00000000E+00
  0.00000000E+00  0.00000000E+00  0.00000000E+00
