Ti  O                                   
   1.0000000000000000     
    10.3175689322014659    0.0000000000000000    0.0000000000000000
     0.0000000000000001   11.3925020811801279    0.0000000000000000
     0.0000000000000000    0.0000000000000000   27.9445366598787217
   Ti   O 
    48    96
Selective dynamics
Direct
  0.8097246950907149  0.8333333333333357  0.2946737299347433   F   F   F
  0.5935920262375802  0.6666666666666643  0.3262623868678602   F   F   F
  0.3097246950907149  0.6666666666666643  0.2946737299347433   F   F   F
  0.0935920262375802  0.8333333333333357  0.3262623868678602   F   F   F
  0.9458255596892982  0.8333333242123419  0.4224080475334331   T   T   T
  0.7268785892924717  0.6666666661580657  0.4514241487609965   T   T   T
  0.4458254884067128  0.6666666427094532  0.4224080229778565   T   T   T
  0.2268784717625233  0.8333333428568338  0.4514241058127351   T   T   T
  0.0860969743508056  0.8333333675260133  0.5500642333597625   T   T   T
  0.8645265218966192  0.6666669601361400  0.5763166136505665   T   T   T
  0.5860975594366123  0.6666665783294081  0.5500642915440469   T   T   T
  0.3645264849738952  0.8333333822945266  0.5763165152209007   T   T   T
  0.2322974520432485  0.8333333564475728  0.6801743902589376   T   T   T
  0.0035287561528447  0.6666664924916282  0.7001930481315837   T   T   T
  0.7322978179799663  0.6666671853512691  0.6801744090429108   T   T   T
  0.5035308019071262  0.8333332854281941  0.7001933064874111   T   T   T
  0.8097246950907149  0.1666666666666643  0.2946737299347433   F   F   F
  0.5935920262375802  0.0000000000000000  0.3262623868678602   F   F   F
  0.3097246950907149  0.0000000000000000  0.2946737299347433   F   F   F
  0.0935920262375802  0.1666666666666643  0.3262623868678602   F   F   F
  0.9458254770015083  0.1666666144353257  0.4224080227105136   T   T   T
  0.7268785968596173 -0.0000000071683766  0.4514241600610514   T   T   T
  0.4458254724953303  0.0000000405229483  0.4224080348692371   T   T   T
  0.2268786358582469  0.1666666621338858  0.4514241528723494   T   T   T
  0.0860975856759829  0.1666665059021989  0.5500643081543088   T   T   T
  0.8645265180470892 -0.0000002763362263  0.5763166155856309   T   T   T
  0.5860975009231298  0.0000001187844096  0.5500642974149965   T   T   T
  0.3645265396166402  0.1666668883726918  0.5763166344086081   T   T   T
  0.2322979005978179  0.1666672354453601  0.6801744014432654   T   T   T
  0.0035288202233344  0.0000001426403902  0.7001930240185669   T   T   T
  0.7322978270191794 -0.0000005941414578  0.6801743982911294   T   T   T
  0.5035285057613592  0.1666665370607128  0.7001929976621654   T   T   T
  0.8097246950907149  0.5000000000000000  0.2946737299347433   F   F   F
  0.5935920262375802  0.3333333333333357  0.3262623868678602   F   F   F
  0.3097246950907149  0.3333333333333357  0.2946737299347433   F   F   F
  0.0935920262375802  0.5000000000000000  0.3262623868678602   F   F   F
  0.9458254833570914  0.5000000275788372  0.4224080208779295   T   T   T
  0.7268784304641430  0.3333333210238675  0.4514240930584326   T   T   T
  0.4458255597742208  0.3333333165484680  0.4224080515197041   T   T   T
  0.2268786119621210  0.4999999952500377  0.4514241402593262   T   T   T
  0.0860975250697047  0.5000001223317991  0.5500642842119603   T   T   T
  0.8645264799114708  0.3333333235020952  0.5763164914949411   T   T   T
  0.5860969268826930  0.3333332758096971  0.5500642181832588   T   T   T
  0.3645265036590447  0.4999997060213281  0.5763166070367828   T   T   T
  0.2322977831175785  0.4999993971361525  0.6801744161210933   T   T   T
  0.0035310144664492  0.3333333501634916  0.7001933438331773   T   T   T
  0.7322973912600723  0.3333334061646097  0.6801743876020858   T   T   T
  0.5035288285220471  0.5000001580824344  0.7001930558014753   T   T   T
  0.4895689087756949  0.6666666666666643  0.2683887763567085   F   F   F
  0.9895689087756949  0.8333333333333357  0.2683887763567085   F   F   F
  0.9137478125526002  0.8333333333333357  0.3525473404458879   F   F   F
  0.6298804814057348  0.8333333333333357  0.3209586835127709   F   F   F
  0.7734362399225603  0.6666666666666643  0.2999774332898255   F   F   F
  0.6250382333631705  0.6666666666666643  0.3947434040891764   F   F   F
  0.4137478125526002  0.6666666666666643  0.3525473404458879   F   F   F
  0.1298804814057348  0.6666666666666643  0.3209586835127709   F   F   F
  0.2734362399225603  0.8333333333333357  0.2999774332898255   F   F   F
  0.1250382333631705  0.8333333333333357  0.3947434040891764   F   F   F
  0.0506134414676148  0.8333333462988862  0.4795577810846191   T   T   T
  0.7655085280745422  0.8333333362109627  0.4474561887820768   T   T   T
  0.9092866255885967  0.6666666273777417  0.4265509070478618   T   T   T
  0.7635430304680403  0.6666666550960764  0.5206712025428705   T   T   T
  0.5506134331638202  0.6666666803133675  0.4795578032448934   T   T   T
  0.2655085695119737  0.6666666542452350  0.4474561886695956   T   T   T
  0.4092866502755042  0.8333333184341393  0.4265508993711180   T   T   T
  0.2635433635922192  0.8333333256207565  0.5206713303810584   T   T   T
  0.1938579368986997  0.8333333083045030  0.6065415739369489   T   T   T
  0.9045501272029510  0.8333333158271869  0.5734601281885395   T   T   T
  0.0500026215115029  0.6666666010090305  0.5532345873340283   T   T   T
  0.9124733673310746  0.6666666539741888  0.6458100258517367   T   T   T
  0.6938575764335675  0.6666666280911723  0.6065414430293825   T   T   T
  0.4045500065846713  0.6666669382639523  0.5734601728522613   T   T   T
  0.5500024323848953  0.8333332993158901  0.5532346379942363   T   T   T
  0.4124725668216456  0.8333333485059095  0.6458095627182675   T   T   T
  0.3473610966276818  0.8333333358006949  0.7314179563859375   T   T   T
  0.0537221864849079  0.8333333367311478  0.7078838426696488   T   T   T
  0.1951766488139422  0.6666670951027307  0.6804161362854794   T   T   T
  0.8473619134140620  0.6666666232137272  0.7314177963879498   T   T   T
  0.5537218439887692  0.6666665754158481  0.7078838374116373   T   T   T
  0.6951765268286997  0.8333333847773020  0.6804161328787792   T   T   T
  0.4895689087756949  0.0000000000000000  0.2683887763567085   F   F   F
  0.9895689087756949  0.1666666666666643  0.2683887763567085   F   F   F
  0.9137478125526002  0.1666666666666643  0.3525473404458879   F   F   F
  0.6298804814057348  0.1666666666666643  0.3209586835127709   F   F   F
  0.7734362399225603  0.0000000000000000  0.2999774332898255   F   F   F
  0.6250382333631705  0.0000000000000000  0.3947434040891764   F   F   F
  0.4137478125526002  0.0000000000000000  0.3525473404458879   F   F   F
  0.1298804814057348  0.0000000000000000  0.3209586835127709   F   F   F
  0.2734362399225603  0.1666666666666643  0.2999774332898255   F   F   F
  0.1250382333631705  0.1666666666666643  0.3947434040891764   F   F   F
  0.0506134297384149  0.1666666691515143  0.4795577967249016   T   T   T
  0.7655085736545536  0.1666666452533354  0.4474561875600061   T   T   T
  0.9092866200746291  0.0000000444063627  0.4265509017250149   T   T   T
  0.7635430590032413  0.0000000014219707  0.5206712013371485   T   T   T
  0.5506134289726462 -0.0000000308092441  0.4795577890648017   T   T   T
  0.2655085658322907  0.0000000173784132  0.4474561877925942   T   T   T
  0.4092866100762262  0.1666666438225729  0.4265509033191568   T   T   T
  0.2635430034328836  0.1666666502995851  0.5206711755616314   T   T   T
  0.1938575329369067  0.1666666339865972  0.6065414340421909   T   T   T
  0.9045500003526006  0.1666670266322884  0.5734601688366486   T   T   T
  0.0500026249752956  0.0000000265070247  0.5532346024362013   T   T   T
  0.9124733486799880 -0.0000000047409241  0.6458100370639046   T   T   T
  0.6938575989358179  0.0000000511187349  0.6065414557995614   T   T   T
  0.4045500183528417 -0.0000003668058297  0.5734601606110927   T   T   T
  0.5500026328967742  0.1666666620264784  0.5532345921186732   T   T   T
  0.4124734782878221  0.1666666293534671  0.6458100992586252   T   T   T
  0.3473620003271297  0.1666666415910490  0.7314177836844291   T   T   T
  0.0537218134322926  0.1666665346210554  0.7078838292348011   T   T   T
  0.1951766245636747 -0.0000004604993115  0.6804161355636816   T   T   T
  0.8473618513030355  0.0000000435518244  0.7314178094544553   T   T   T
  0.5537218763405033  0.0000001503870898  0.7078838488500143   T   T   T
  0.6951766474743061  0.1666670851046128  0.6804161316342709   T   T   T
  0.4895689087756949  0.3333333333333357  0.2683887763567085   F   F   F
  0.9895689087756949  0.5000000000000000  0.2683887763567085   F   F   F
  0.9137478125526002  0.5000000000000000  0.3525473404458879   F   F   F
  0.6298804814057348  0.5000000000000000  0.3209586835127709   F   F   F
  0.7734362399225603  0.3333333333333357  0.2999774332898255   F   F   F
  0.6250382333631705  0.3333333333333357  0.3947434040891764   F   F   F
  0.4137478125526002  0.3333333333333357  0.3525473404458879   F   F   F
  0.1298804814057348  0.3333333333333357  0.3209586835127709   F   F   F
  0.2734362399225603  0.5000000000000000  0.2999774332898255   F   F   F
  0.1250382333631705  0.5000000000000000  0.3947434040891764   F   F   F
  0.0506134244617940  0.4999999771352518  0.4795578112656706   T   T   T
  0.7655085684458900  0.5000000227071930  0.4474561888908214   T   T   T
  0.9092866530225039  0.3333333323108092  0.4265509002919662   T   T   T
  0.7635433971654895  0.3333333303784289  0.5206713510044587   T   T   T
  0.5506134400785675  0.3333333319241919  0.4795577794519291   T   T   T
  0.2655085298770810  0.3333333249512143  0.4474561920960173   T   T   T
  0.4092866274400220  0.5000000351382259  0.4265509016175963   T   T   T
  0.2635430649644532  0.5000000154531465  0.5206712137918241   T   T   T
  0.1938575853821699  0.5000000516922144  0.6065414408060720   T   T   T
  0.9045500154367971  0.4999996564214569  0.5734601550055514   T   T   T
  0.0500024250857694  0.3333333710355118  0.5532346229737979   T   T   T
  0.9124724786934891  0.3333333520018163  0.6458094859399554   T   T   T
  0.6938579681946376  0.3333333091315281  0.6065415826965114   T   T   T
  0.4045501340548331  0.3333334160038002  0.5734601305490974   T   T   T
  0.5500026170794228  0.5000000262334801  0.5532346048347423   T   T   T
  0.4124733106582362  0.5000000176611231  0.6458099813428386   T   T   T
  0.3473618917914069  0.5000000171003700  0.7314178164890548   T   T   T
  0.0537218554065794  0.5000001213642896  0.7078838285289160   T   T   T
  0.1951765002458032  0.3333333793348902  0.6804161222099904   T   T   T
  0.8473610471049445  0.3333333323439347  0.7314179528058768   T   T   T
  0.5537222201652120  0.3333332891663767  0.7078838350816070   T   T   T
  0.6951766482604576  0.4999995339121495  0.6804161165718702   T   T   T

  0.00000000E+00  0.00000000E+00  0.00000000E+00
  0.00000000E+00  0.00000000E+00  0.00000000E+00
  0.00000000E+00  0.00000000E+00  0.00000000E+00
  0.00000000E+00  0.00000000E+00  0.00000000E+00
  0.00000000E+00  0.00000000E+00  0.00000000E+00
  0.00000000E+00  0.00000000E+00  0.00000000E+00
  0.00000000E+00  0.00000000E+00  0.00000000E+00
  0.00000000E+00  0.00000000E+00  0.00000000E+00
  0.00000000E+00  0.00000000E+00  0.00000000E+00
  0.00000000E+00  0.00000000E+00  0.00000000E+00
  0.00000000E+00  0.00000000E+00  0.00000000E+00
  0.00000000E+00  0.00000000E+00  0.00000000E+00
  0.00000000E+00  0.00000000E+00  0.00000000E+00
  0.00000000E+00  0.00000000E+00  0.00000000E+00
  0.00000000E+00  0.00000000E+00  0.00000000E+00
  0.00000000E+00  0.00000000E+00  0.00000000E+00
  0.00000000E+00  0.00000000E+00  0.00000000E+00
  0.00000000E+00  0.00000000E+00  0.00000000E+00
  0.00000000E+00  0.00000000E+00  0.00000000E+00
  0.00000000E+00  0.00000000E+00  0.00000000E+00
  0.00000000E+00  0.00000000E+00  0.00000000E+00
  0.00000000E+00  0.00000000E+00  0.00000000E+00
  0.00000000E+00  0.00000000E+00  0.00000000E+00
  0.00000000E+00  0.00000000E+00  0.00000000E+00
  0.00000000E+00  0.00000000E+00  0.00000000E+00
  0.00000000E+00  0.00000000E+00  0.00000000E+00
  0.00000000E+00  0.00000000E+00  0.00000000E+00
  0.00000000E+00  0.00000000E+00  0.00000000E+00
  0.00000000E+00  0.00000000E+00  0.00000000E+00
  0.00000000E+00  0.00000000E+00  0.00000000E+00
  0.00000000E+00  0.00000000E+00  0.00000000E+00
  0.00000000E+00  0.00000000E+00  0.00000000E+00
  0.00000000E+00  0.00000000E+00  0.00000000E+00
  0.00000000E+00  0.00000000E+00  0.00000000E+00
  0.00000000E+00  0.00000000E+00  0.00000000E+00
  0.00000000E+00  0.00000000E+00  0.00000000E+00
  0.00000000E+00  0.00000000E+00  0.00000000E+00
  0.00000000E+00  0.00000000E+00  0.00000000E+00
  0.00000000E+00  0.00000000E+00  0.00000000E+00
  0.00000000E+00  0.00000000E+00  0.00000000E+00
  0.00000000E+00  0.00000000E+00  0.00000000E+00
  0.00000000E+00  0.00000000E+00  0.00000000E+00
  0.00000000E+00  0.00000000E+00  0.00000000E+00
  0.00000000E+00  0.00000000E+00  0.00000000E+00
  0.00000000E+00  0.00000000E+00  0.00000000E+00
  0.00000000E+00  0.00000000E+00  0.00000000E+00
  0.00000000E+00  0.00000000E+00  0.00000000E+00
  0.00000000E+00  0.00000000E+00  0.00000000E+00
  0.00000000E+00  0.00000000E+00  0.00000000E+00
  0.00000000E+00  0.00000000E+00  0.00000000E+00
  0.00000000E+00  0.00000000E+00  0.00000000E+00
  0.00000000E+00  0.00000000E+00  0.00000000E+00
  0.00000000E+00  0.00000000E+00  0.00000000E+00
  0.00000000E+00  0.00000000E+00  0.00000000E+00
  0.00000000E+00  0.00000000E+00  0.00000000E+00
  0.00000000E+00  0.00000000E+00  0.00000000E+00
  0.00000000E+00  0.00000000E+00  0.00000000E+00
  0.00000000E+00  0.00000000E+00  0.00000000E+00
  0.00000000E+00  0.00000000E+00  0.00000000E+00
  0.00000000E+00  0.00000000E+00  0.00000000E+00
  0.00000000E+00  0.00000000E+00  0.00000000E+00
  0.00000000E+00  0.00000000E+00  0.00000000E+00
  0.00000000E+00  0.00000000E+00  0.00000000E+00
  0.00000000E+00  0.00000000E+00  0.00000000E+00
  0.00000000E+00  0.00000000E+00  0.00000000E+00
  0.00000000E+00  0.00000000E+00  0.00000000E+00
  0.00000000E+00  0.00000000E+00  0.00000000E+00
  0.00000000E+00  0.00000000E+00  0.00000000E+00
  0.00000000E+00  0.00000000E+00  0.00000000E+00
  0.00000000E+00  0.00000000E+00  0.00000000E+00
  0.00000000E+00  0.00000000E+00  0.00000000E+00
  0.00000000E+00  0.00000000E+00  0.00000000E+00
  0.00000000E+00  0.00000000E+00  0.00000000E+00
  0.00000000E+00  0.00000000E+00  0.00000000E+00
  0.00000000E+00  0.00000000E+00  0.00000000E+00
  0.00000000E+00  0.00000000E+00  0.00000000E+00
  0.00000000E+00  0.00000000E+00  0.00000000E+00
  0.00000000E+00  0.00000000E+00  0.00000000E+00
  0.00000000E+00  0.00000000E+00  0.00000000E+00
  0.00000000E+00  0.00000000E+00  0.00000000E+00
  0.00000000E+00  0.00000000E+00  0.00000000E+00
  0.00000000E+00  0.00000000E+00  0.00000000E+00
  0.00000000E+00  0.00000000E+00  0.00000000E+00
  0.00000000E+00  0.00000000E+00  0.00000000E+00
  0.00000000E+00  0.00000000E+00  0.00000000E+00
  0.00000000E+00  0.00000000E+00  0.00000000E+00
  0.00000000E+00  0.00000000E+00  0.00000000E+00
  0.00000000E+00  0.00000000E+00  0.00000000E+00
  0.00000000E+00  0.00000000E+00  0.00000000E+00
  0.00000000E+00  0.00000000E+00  0.00000000E+00
  0.00000000E+00  0.00000000E+00  0.00000000E+00
  0.00000000E+00  0.00000000E+00  0.00000000E+00
  0.00000000E+00  0.00000000E+00  0.00000000E+00
  0.00000000E+00  0.00000000E+00  0.00000000E+00
  0.00000000E+00  0.00000000E+00  0.00000000E+00
  0.00000000E+00  0.00000000E+00  0.00000000E+00
  0.00000000E+00  0.00000000E+00  0.00000000E+00
  0.00000000E+00  0.00000000E+00  0.00000000E+00
  0.00000000E+00  0.00000000E+00  0.00000000E+00
  0.00000000E+00  0.00000000E+00  0.00000000E+00
  0.00000000E+00  0.00000000E+00  0.00000000E+00
  0.00000000E+00  0.00000000E+00  0.00000000E+00
  0.00000000E+00  0.00000000E+00  0.00000000E+00
  0.00000000E+00  0.00000000E+00  0.00000000E+00
  0.00000000E+00  0.00000000E+00  0.00000000E+00
  0.00000000E+00  0.00000000E+00  0.00000000E+00
  0.00000000E+00  0.00000000E+00  0.00000000E+00
  0.00000000E+00  0.00000000E+00  0.00000000E+00
  0.00000000E+00  0.00000000E+00  0.00000000E+00
  0.00000000E+00  0.00000000E+00  0.00000000E+00
  0.00000000E+00  0.00000000E+00  0.00000000E+00
  0.00000000E+00  0.00000000E+00  0.00000000E+00
  0.00000000E+00  0.00000000E+00  0.00000000E+00
  0.00000000E+00  0.00000000E+00  0.00000000E+00
  0.00000000E+00  0.00000000E+00  0.00000000E+00
  0.00000000E+00  0.00000000E+00  0.00000000E+00
  0.00000000E+00  0.00000000E+00  0.00000000E+00
  0.00000000E+00  0.00000000E+00  0.00000000E+00
  0.00000000E+00  0.00000000E+00  0.00000000E+00
  0.00000000E+00  0.00000000E+00  0.00000000E+00
  0.00000000E+00  0.00000000E+00  0.00000000E+00
  0.00000000E+00  0.00000000E+00  0.00000000E+00
  0.00000000E+00  0.00000000E+00  0.00000000E+00
  0.00000000E+00  0.00000000E+00  0.00000000E+00
  0.00000000E+00  0.00000000E+00  0.00000000E+00
  0.00000000E+00  0.00000000E+00  0.00000000E+00
  0.00000000E+00  0.00000000E+00  0.00000000E+00
  0.00000000E+00  0.00000000E+00  0.00000000E+00
  0.00000000E+00  0.00000000E+00  0.00000000E+00
  0.00000000E+00  0.00000000E+00  0.00000000E+00
  0.00000000E+00  0.00000000E+00  0.00000000E+00
  0.00000000E+00  0.00000000E+00  0.00000000E+00
  0.00000000E+00  0.00000000E+00  0.00000000E+00
  0.00000000E+00  0.00000000E+00  0.00000000E+00
  0.00000000E+00  0.00000000E+00  0.00000000E+00
  0.00000000E+00  0.00000000E+00  0.00000000E+00
  0.00000000E+00  0.00000000E+00  0.00000000E+00
  0.00000000E+00  0.00000000E+00  0.00000000E+00
  0.00000000E+00  0.00000000E+00  0.00000000E+00
  0.00000000E+00  0.00000000E+00  0.00000000E+00
  0.00000000E+00  0.00000000E+00  0.00000000E+00
  0.00000000E+00  0.00000000E+00  0.00000000E+00
  0.00000000E+00  0.00000000E+00  0.00000000E+00
  0.00000000E+00  0.00000000E+00  0.00000000E+00
