Ti  O                                   
   1.0000000000000000     
    13.1437476067807388    0.0000000000000000    0.0000000000000000
     0.0000000000000000   12.1048943582711743    0.0000000000000000
     0.0000000000000000    0.0000000000000000   30.7112088001665882
   Ti   O 
    80   160
Selective dynamics
Direct
  0.7500000000000000  0.6250000000000000  0.2860105785430775   F   F   F
  0.0000000000000000  0.7500000000000000  0.2860105785430775   F   F   F
  0.0000000000000000  0.6250000000000000  0.3930052892715423   F   F   F
  0.7500000000000000  0.7500000000000000  0.3930052892715423   F   F   F
  0.7500000000000000  0.6250000000000000  0.5000000000000000   F   F   F
  0.0000000000000000  0.7500000000000000  0.5000000000000000   F   F   F
  0.0000000069226592  0.6250000043317600  0.6051090617790529   T   T   T
  0.7499999798914959  0.7499999731146807  0.6098859366063724   T   T   T
  0.7499999833182742  0.6250000171250968  0.7201038920173333   T   T   T
 -0.0000000602218131  0.7499999888279366  0.7096741894730211   T   T   T
  0.7500000000000000  0.8750000000000000  0.2860105785430775   F   F   F
  0.0000000000000000  0.0000000000000000  0.2860105785430775   F   F   F
  0.0000000000000000  0.8750000000000000  0.3930052892715423   F   F   F
  0.7500000000000000  0.0000000000000000  0.3930052892715423   F   F   F
  0.7500000000000000  0.8750000000000000  0.5000000000000000   F   F   F
  0.0000000000000000  0.0000000000000000  0.5000000000000000   F   F   F
 -0.0000000109223485  0.8749999917432802  0.6051090631832061   T   T   T
  0.7499999945420258 -0.0000000289910586  0.6098859400933495   T   T   T
  0.7500000083169428  0.8749999962846662  0.7201038899180676   T   T   T
  0.0000000074289625 -0.0000000074775217  0.7096741742679344   T   T   T
  0.7500000000000000  0.1250000000000000  0.2860105785430775   F   F   F
  0.0000000000000000  0.2500000000000000  0.2860105785430775   F   F   F
  0.0000000000000000  0.1250000000000000  0.3930052892715423   F   F   F
  0.7500000000000000  0.2500000000000000  0.3930052892715423   F   F   F
  0.7500000000000000  0.1250000000000000  0.5000000000000000   F   F   F
  0.0000000000000000  0.2500000000000000  0.5000000000000000   F   F   F
  0.0000000030180575  0.1250000001430621  0.6051090545186929   T   T   T
  0.7500000189490418  0.2500000013114929  0.6098859382731475   T   T   T
  0.7499999898619304  0.1249999761929036  0.7201038724719594   T   T   T
 -0.0000000436769884  0.2499999894349571  0.7096741710324631   T   T   T
  0.7500000000000000  0.3750000000000000  0.2860105785430775   F   F   F
  0.0000000000000000  0.5000000000000000  0.2860105785430775   F   F   F
  0.0000000000000000  0.3750000000000000  0.3930052892715423   F   F   F
  0.7500000000000000  0.5000000000000000  0.3930052892715423   F   F   F
  0.7500000000000000  0.3750000000000000  0.5000000000000000   F   F   F
  0.0000000000000000  0.5000000000000000  0.5000000000000000   F   F   F
 -0.0000000050923926  0.3750000084104653  0.6051090575526955   T   T   T
  0.7500000019994948  0.5000000226173756  0.6098859640592278   T   T   T
  0.7500000057818408  0.3749999896145177  0.7201038915511884   T   T   T
 -0.0000000012227066  0.5000000019678116  0.7096741797449914   T   T   T
  0.2500000000000000  0.6250000000000000  0.2860105785430775   F   F   F
  0.5000000000000000  0.7500000000000000  0.2860105785430775   F   F   F
  0.5000000000000000  0.6250000000000000  0.3930052892715423   F   F   F
  0.2500000000000000  0.7500000000000000  0.3930052892715423   F   F   F
  0.2500000000000000  0.6250000000000000  0.5000000000000000   F   F   F
  0.5000000000000000  0.7500000000000000  0.5000000000000000   F   F   F
  0.4999999829976815  0.6249999998315856  0.6051090694814406   T   T   T
  0.2499999557135500  0.7499999968046601  0.6098859294823183   T   T   T
  0.2500000075772313  0.6249999609194173  0.7201038434152882   T   T   T
  0.5000000371438559  0.7499999847599734  0.7096742021439797   T   T   T
  0.2500000000000000  0.8750000000000000  0.2860105785430775   F   F   F
  0.5000000000000000  0.0000000000000000  0.2860105785430775   F   F   F
  0.5000000000000000  0.8750000000000000  0.3930052892715423   F   F   F
  0.2500000000000000  0.0000000000000000  0.3930052892715423   F   F   F
  0.2500000000000000  0.8750000000000000  0.5000000000000000   F   F   F
  0.5000000000000000  0.0000000000000000  0.5000000000000000   F   F   F
  0.4999999980482343  0.8749999921606841  0.6051090735228567   T   T   T
  0.2500000271296456  0.0000000323730411  0.6098859213524025   T   T   T
  0.2499999903087861  0.8749999882516987  0.7201038564208980   T   T   T
  0.5000000266100909 -0.0000000168909105  0.7096741834030540   T   T   T
  0.2500000000000000  0.1250000000000000  0.2860105785430775   F   F   F
  0.5000000000000000  0.2500000000000000  0.2860105785430775   F   F   F
  0.5000000000000000  0.1250000000000000  0.3930052892715423   F   F   F
  0.2500000000000000  0.2500000000000000  0.3930052892715423   F   F   F
  0.2500000000000000  0.1250000000000000  0.5000000000000000   F   F   F
  0.5000000000000000  0.2500000000000000  0.5000000000000000   F   F   F
  0.5000000282630594  0.1250000122832914  0.6051090692743277   T   T   T
  0.2500000119488843  0.2500000161934257  0.6098859294663324   T   T   T
  0.2499999980076491  0.1250000110764644  0.7201038451546358   T   T   T
  0.4999999900017318  0.2499999939248007  0.7096742077860214   T   T   T
  0.2500000000000000  0.3750000000000000  0.2860105785430775   F   F   F
  0.5000000000000000  0.5000000000000000  0.2860105785430775   F   F   F
  0.5000000000000000  0.3750000000000000  0.3930052892715423   F   F   F
  0.2500000000000000  0.5000000000000000  0.3930052892715423   F   F   F
  0.2500000000000000  0.3750000000000000  0.5000000000000000   F   F   F
  0.5000000000000000  0.5000000000000000  0.5000000000000000   F   F   F
  0.5000000340127368  0.3750000026712150  0.6051090740908379   T   T   T
  0.2500000284036189  0.4999999757886638  0.6098859067100213   T   T   T
  0.2499999614423496  0.3749999978953675  0.7201038650573881   T   T   T
  0.5000000097628780  0.4999999730737936  0.7096741924693306   T   T   T
  0.7500000000000000  0.7500000000000000  0.2442105111785509   F   F   F
  0.7500000000000000  0.7500000000000000  0.3278106459076042   F   F   F
  0.0976685367901169  0.6250000000000000  0.2860105785430775   F   F   F
  0.9023314632098831  0.6250000000000000  0.2860105785430775   F   F   F
  0.0000000000000000  0.7500000000000000  0.3512052219070156   F   F   F
  0.0000000000000000  0.7500000000000000  0.4348053566360619   F   F   F
  0.8476685367901169  0.6250000000000000  0.3930052892715423   F   F   F
  0.1523314632098831  0.6250000000000000  0.3930052892715423   F   F   F
  0.7500000000000000  0.7500000000000000  0.4581999326354733   F   F   F
  0.7500000000000000  0.7500000000000000  0.5418000673645267   F   F   F
  0.0976685367901169  0.6250000000000000  0.5000000000000000   F   F   F
  0.9023314632098760  0.6250000000000000  0.5000000000000000   F   F   F
 -0.0000000329029309  0.7499999988489731  0.5653636278374048   T   T   T
 -0.0000000023195717  0.7499999923168041  0.6489730160477767   T   T   T
  0.8495969290874062  0.6250000008146910  0.6073210895660293   T   T   T
  0.1504030732744338  0.6249999685464166  0.6073210350960095   T   T   T
  0.7499999782103892  0.7499999918540338  0.6722881352093798   T   T   T
  0.7499999965093669  0.7500000186301453  0.7560875152128085   T   T   T
  0.0933335306934861  0.6249999993079118  0.7192589077351963   T   T   T
  0.9066664488694297  0.6249999799388147  0.7192589621709883   T   T   T
  0.7500000000000000  0.0000000000000000  0.2442105111785509   F   F   F
  0.7500000000000000  0.0000000000000000  0.3278106459076042   F   F   F
  0.0976685367901169  0.8750000000000000  0.2860105785430775   F   F   F
  0.9023314632098831  0.8750000000000000  0.2860105785430775   F   F   F
  0.0000000000000000  0.0000000000000000  0.3512052219070156   F   F   F
  0.0000000000000000  0.0000000000000000  0.4348053566360619   F   F   F
  0.8476685367901169  0.8750000000000000  0.3930052892715423   F   F   F
  0.1523314632098831  0.8750000000000000  0.3930052892715423   F   F   F
  0.7500000000000000  0.0000000000000000  0.4581999326354733   F   F   F
  0.7500000000000000  0.0000000000000000  0.5418000673645267   F   F   F
  0.0976685367901169  0.8750000000000000  0.5000000000000000   F   F   F
  0.9023314632098760  0.8750000000000000  0.5000000000000000   F   F   F
 -0.0000000260531143 -0.0000000067759197  0.5653636262418524   T   T   T
 -0.0000000192662063  0.0000000013381526  0.6489730053244671   T   T   T
  0.8495969225004745  0.8749999811082003  0.6073210866219144   T   T   T
  0.1504030757869566  0.8750000099759695  0.6073210278791520   T   T   T
  0.7499999828348449 -0.0000000290527136  0.6722881283752818   T   T   T
  0.7500000019747388  0.0000000110418062  0.7560875070617402   T   T   T
  0.0933335330502031  0.8749999777703813  0.7192588895314213   T   T   T
  0.9066664544318124  0.8750000074908366  0.7192589631668979   T   T   T
  0.7500000000000000  0.2500000000000000  0.2442105111785509   F   F   F
  0.7500000000000000  0.2500000000000000  0.3278106459076042   F   F   F
  0.0976685367901169  0.1250000000000000  0.2860105785430775   F   F   F
  0.9023314632098831  0.1250000000000000  0.2860105785430775   F   F   F
  0.0000000000000000  0.2500000000000000  0.3512052219070156   F   F   F
  0.0000000000000000  0.2500000000000000  0.4348053566360619   F   F   F
  0.8476685367901169  0.1250000000000000  0.3930052892715423   F   F   F
  0.1523314632098831  0.1250000000000000  0.3930052892715423   F   F   F
  0.7500000000000000  0.2500000000000000  0.4581999326354733   F   F   F
  0.7500000000000000  0.2500000000000000  0.5418000673645267   F   F   F
  0.0976685367901169  0.1250000000000000  0.5000000000000000   F   F   F
  0.9023314632098760  0.1250000000000000  0.5000000000000000   F   F   F
 -0.0000000261777204  0.2500000084860380  0.5653636236682273   T   T   T
 -0.0000000031418792  0.2500000059988938  0.6489730005801255   T   T   T
  0.8495969219104618  0.1249999875876206  0.6073210810469475   T   T   T
  0.1504030770094802  0.1250000254459128  0.6073210354294095   T   T   T
  0.7499999803662210  0.2500000031129785  0.6722881210431741   T   T   T
  0.7499999788254795  0.2499999666650858  0.7560875032490371   T   T   T
  0.0933335213051489  0.1249999909437969  0.7192589160830684   T   T   T
  0.9066664385352493  0.1249999966342145  0.7192589220110022   T   T   T
  0.7500000000000000  0.5000000000000000  0.2442105111785509   F   F   F
  0.7500000000000000  0.5000000000000000  0.3278106459076042   F   F   F
  0.0976685367901169  0.3750000000000000  0.2860105785430775   F   F   F
  0.9023314632098831  0.3750000000000000  0.2860105785430775   F   F   F
  0.0000000000000000  0.5000000000000000  0.3512052219070156   F   F   F
  0.0000000000000000  0.5000000000000000  0.4348053566360619   F   F   F
  0.8476685367901169  0.3750000000000000  0.3930052892715423   F   F   F
  0.1523314632098831  0.3750000000000000  0.3930052892715423   F   F   F
  0.7500000000000000  0.5000000000000000  0.4581999326354733   F   F   F
  0.7500000000000000  0.5000000000000000  0.5418000673645267   F   F   F
  0.0976685367901169  0.3750000000000000  0.5000000000000000   F   F   F
  0.9023314632098760  0.3750000000000000  0.5000000000000000   F   F   F
 -0.0000000251049981  0.5000000030353945  0.5653636243208076   T   T   T
  0.0000000096362049  0.4999999958610489  0.6489730078503160   T   T   T
  0.8495969235029011  0.3750000140630914  0.6073210844033693   T   T   T
  0.1504030729440114  0.3750000008407817  0.6073210392397612   T   T   T
  0.7499999843657007  0.5000000244010063  0.6722881321601141   T   T   T
  0.7499999970424576  0.4999999888658937  0.7560874984297263   T   T   T
  0.0933335132357653  0.3749999898627333  0.7192589291572798   T   T   T
  0.9066664392767040  0.3749999898114543  0.7192589245914015   T   T   T
  0.2500000000000000  0.7500000000000000  0.2442105111785509   F   F   F
  0.2500000000000000  0.7500000000000000  0.3278106459076042   F   F   F
  0.5976685367901240  0.6250000000000000  0.2860105785430775   F   F   F
  0.4023314632098760  0.6250000000000000  0.2860105785430775   F   F   F
  0.5000000000000000  0.7500000000000000  0.3512052219070156   F   F   F
  0.5000000000000000  0.7500000000000000  0.4348053566360619   F   F   F
  0.3476685367901169  0.6250000000000000  0.3930052892715423   F   F   F
  0.6523314632098760  0.6250000000000000  0.3930052892715423   F   F   F
  0.2500000000000000  0.7500000000000000  0.4581999326354733   F   F   F
  0.2500000000000000  0.7500000000000000  0.5418000673645267   F   F   F
  0.5976685367901169  0.6250000000000000  0.5000000000000000   F   F   F
  0.4023314632098760  0.6250000000000000  0.5000000000000000   F   F   F
  0.5000000331083380  0.7499999982122639  0.5653636353796718   T   T   T
  0.5000000534449508  0.7499999871556340  0.6489730287545563   T   T   T
  0.3495969229494116  0.6249999815724471  0.6073210511589576   T   T   T
  0.6504030799030174  0.6250000004385495  0.6073210717780315   T   T   T
  0.2499999786562397  0.7499999360080015  0.6722880918704340   T   T   T
  0.2499999882909805  0.7499999727314083  0.7560874650748290   T   T   T
  0.5933335368743367  0.6249999709987404  0.7192589739107117   T   T   T
  0.4066664596418519  0.6249999880188042  0.7192589063984638   T   T   T
  0.2500000000000000  0.0000000000000000  0.2442105111785509   F   F   F
  0.2500000000000000  0.0000000000000000  0.3278106459076042   F   F   F
  0.5976685367901240  0.8750000000000000  0.2860105785430775   F   F   F
  0.4023314632098760  0.8750000000000000  0.2860105785430775   F   F   F
  0.5000000000000000  0.0000000000000000  0.3512052219070156   F   F   F
  0.5000000000000000  0.0000000000000000  0.4348053566360619   F   F   F
  0.3476685367901169  0.8750000000000000  0.3930052892715423   F   F   F
  0.6523314632098760  0.8750000000000000  0.3930052892715423   F   F   F
  0.2500000000000000  0.0000000000000000  0.4581999326354733   F   F   F
  0.2500000000000000  0.0000000000000000  0.5418000673645267   F   F   F
  0.5976685367901169  0.8750000000000000  0.5000000000000000   F   F   F
  0.4023314632098760  0.8750000000000000  0.5000000000000000   F   F   F
  0.5000000240273792 -0.0000000036059577  0.5653636355882996   T   T   T
  0.5000000597391050  0.0000000033407780  0.6489730157980029   T   T   T
  0.3495969263262578  0.8749999953750383  0.6073210492227150   T   T   T
  0.6504030863927794  0.8749999801841793  0.6073210725338255   T   T   T
  0.2499999947042093  0.0000000275670340  0.6722880915616419   T   T   T
  0.2499999915258256 -0.0000000151245414  0.7560874623538849   T   T   T
  0.5933335421743826  0.8750000033387160  0.7192589720804549   T   T   T
  0.4066664489083572  0.8749999775510136  0.7192588819655434   T   T   T
  0.2500000000000000  0.2500000000000000  0.2442105111785509   F   F   F
  0.2500000000000000  0.2500000000000000  0.3278106459076042   F   F   F
  0.5976685367901240  0.1250000000000000  0.2860105785430775   F   F   F
  0.4023314632098760  0.1250000000000000  0.2860105785430775   F   F   F
  0.5000000000000000  0.2500000000000000  0.3512052219070156   F   F   F
  0.5000000000000000  0.2500000000000000  0.4348053566360619   F   F   F
  0.3476685367901169  0.1250000000000000  0.3930052892715423   F   F   F
  0.6523314632098760  0.1250000000000000  0.3930052892715423   F   F   F
  0.2500000000000000  0.2500000000000000  0.4581999326354733   F   F   F
  0.2500000000000000  0.2500000000000000  0.5418000673645267   F   F   F
  0.5976685367901169  0.1250000000000000  0.5000000000000000   F   F   F
  0.4023314632098760  0.1250000000000000  0.5000000000000000   F   F   F
  0.5000000196462161  0.2500000150158406  0.5653636359019284   T   T   T
  0.5000000330202962  0.2500000062153837  0.6489730318082609   T   T   T
  0.3495969401464520  0.1250000355729756  0.6073210486880563   T   T   T
  0.6504030935148724  0.1249999927720659  0.6073210660733155   T   T   T
  0.2499999870154708  0.2500000101403795  0.6722881050884056   T   T   T
  0.2500000070570499  0.2499999891672665  0.7560874738609793   T   T   T
  0.5933335427280164  0.1249999897521109  0.7192589437971270   T   T   T
  0.4066664589045252  0.1249999688745104  0.7192589175783938   T   T   T
  0.2500000000000000  0.5000000000000000  0.2442105111785509   F   F   F
  0.2500000000000000  0.5000000000000000  0.3278106459076042   F   F   F
  0.5976685367901240  0.3750000000000000  0.2860105785430775   F   F   F
  0.4023314632098760  0.3750000000000000  0.2860105785430775   F   F   F
  0.5000000000000000  0.5000000000000000  0.3512052219070156   F   F   F
  0.5000000000000000  0.5000000000000000  0.4348053566360619   F   F   F
  0.3476685367901169  0.3750000000000000  0.3930052892715423   F   F   F
  0.6523314632098760  0.3750000000000000  0.3930052892715423   F   F   F
  0.2500000000000000  0.5000000000000000  0.4581999326354733   F   F   F
  0.2500000000000000  0.5000000000000000  0.5418000673645267   F   F   F
  0.5976685367901169  0.3750000000000000  0.5000000000000000   F   F   F
  0.4023314632098760  0.3750000000000000  0.5000000000000000   F   F   F
  0.5000000091119021  0.4999999957277096  0.5653636331692773   T   T   T
  0.5000000172218093  0.4999999951784707  0.6489730192485910   T   T   T
  0.3495969415040098  0.3749999966744469  0.6073210550254718   T   T   T
  0.6504030932893122  0.3750000184825959  0.6073210661855042   T   T   T
  0.2499999930049436  0.4999999459864385  0.6722880990462196   T   T   T
  0.2500000018995853  0.5000000052342514  0.7560874829892869   T   T   T
  0.5933335443113126  0.3749999815202804  0.7192589422343890   T   T   T
  0.4066664531322811  0.3749999980103149  0.7192589394696489   T   T   T

  0.00000000E+00  0.00000000E+00  0.00000000E+00
  0.00000000E+00  0.00000000E+00  0.00000000E+00
  0.00000000E+00  0.00000000E+00  0.00000000E+00
  0.00000000E+00  0.00000000E+00  0.00000000E+00
  0.00000000E+00  0.00000000E+00  0.00000000E+00
  0.00000000E+00  0.00000000E+00  0.00000000E+00
  0.00000000E+00  0.00000000E+00  0.00000000E+00
  0.00000000E+00  0.00000000E+00  0.00000000E+00
  0.00000000E+00  0.00000000E+00  0.00000000E+00
  0.00000000E+00  0.00000000E+00  0.00000000E+00
  0.00000000E+00  0.00000000E+00  0.00000000E+00
  0.00000000E+00  0.00000000E+00  0.00000000E+00
  0.00000000E+00  0.00000000E+00  0.00000000E+00
  0.00000000E+00  0.00000000E+00  0.00000000E+00
  0.00000000E+00  0.00000000E+00  0.00000000E+00
  0.00000000E+00  0.00000000E+00  0.00000000E+00
  0.00000000E+00  0.00000000E+00  0.00000000E+00
  0.00000000E+00  0.00000000E+00  0.00000000E+00
  0.00000000E+00  0.00000000E+00  0.00000000E+00
  0.00000000E+00  0.00000000E+00  0.00000000E+00
  0.00000000E+00  0.00000000E+00  0.00000000E+00
  0.00000000E+00  0.00000000E+00  0.00000000E+00
  0.00000000E+00  0.00000000E+00  0.00000000E+00
  0.00000000E+00  0.00000000E+00  0.00000000E+00
  0.00000000E+00  0.00000000E+00  0.00000000E+00
  0.00000000E+00  0.00000000E+00  0.00000000E+00
  0.00000000E+00  0.00000000E+00  0.00000000E+00
  0.00000000E+00  0.00000000E+00  0.00000000E+00
  0.00000000E+00  0.00000000E+00  0.00000000E+00
  0.00000000E+00  0.00000000E+00  0.00000000E+00
  0.00000000E+00  0.00000000E+00  0.00000000E+00
  0.00000000E+00  0.00000000E+00  0.00000000E+00
  0.00000000E+00  0.00000000E+00  0.00000000E+00
  0.00000000E+00  0.00000000E+00  0.00000000E+00
  0.00000000E+00  0.00000000E+00  0.00000000E+00
  0.00000000E+00  0.00000000E+00  0.00000000E+00
  0.00000000E+00  0.00000000E+00  0.00000000E+00
  0.00000000E+00  0.00000000E+00  0.00000000E+00
  0.00000000E+00  0.00000000E+00  0.00000000E+00
  0.00000000E+00  0.00000000E+00  0.00000000E+00
  0.00000000E+00  0.00000000E+00  0.00000000E+00
  0.00000000E+00  0.00000000E+00  0.00000000E+00
  0.00000000E+00  0.00000000E+00  0.00000000E+00
  0.00000000E+00  0.00000000E+00  0.00000000E+00
  0.00000000E+00  0.00000000E+00  0.00000000E+00
  0.00000000E+00  0.00000000E+00  0.00000000E+00
  0.00000000E+00  0.00000000E+00  0.00000000E+00
  0.00000000E+00  0.00000000E+00  0.00000000E+00
  0.00000000E+00  0.00000000E+00  0.00000000E+00
  0.00000000E+00  0.00000000E+00  0.00000000E+00
  0.00000000E+00  0.00000000E+00  0.00000000E+00
  0.00000000E+00  0.00000000E+00  0.00000000E+00
  0.00000000E+00  0.00000000E+00  0.00000000E+00
  0.00000000E+00  0.00000000E+00  0.00000000E+00
  0.00000000E+00  0.00000000E+00  0.00000000E+00
  0.00000000E+00  0.00000000E+00  0.00000000E+00
  0.00000000E+00  0.00000000E+00  0.00000000E+00
  0.00000000E+00  0.00000000E+00  0.00000000E+00
  0.00000000E+00  0.00000000E+00  0.00000000E+00
  0.00000000E+00  0.00000000E+00  0.00000000E+00
  0.00000000E+00  0.00000000E+00  0.00000000E+00
  0.00000000E+00  0.00000000E+00  0.00000000E+00
  0.00000000E+00  0.00000000E+00  0.00000000E+00
  0.00000000E+00  0.00000000E+00  0.00000000E+00
  0.00000000E+00  0.00000000E+00  0.00000000E+00
  0.00000000E+00  0.00000000E+00  0.00000000E+00
  0.00000000E+00  0.00000000E+00  0.00000000E+00
  0.00000000E+00  0.00000000E+00  0.00000000E+00
  0.00000000E+00  0.00000000E+00  0.00000000E+00
  0.00000000E+00  0.00000000E+00  0.00000000E+00
  0.00000000E+00  0.00000000E+00  0.00000000E+00
  0.00000000E+00  0.00000000E+00  0.00000000E+00
  0.00000000E+00  0.00000000E+00  0.00000000E+00
  0.00000000E+00  0.00000000E+00  0.00000000E+00
  0.00000000E+00  0.00000000E+00  0.00000000E+00
  0.00000000E+00  0.00000000E+00  0.00000000E+00
  0.00000000E+00  0.00000000E+00  0.00000000E+00
  0.00000000E+00  0.00000000E+00  0.00000000E+00
  0.00000000E+00  0.00000000E+00  0.00000000E+00
  0.00000000E+00  0.00000000E+00  0.00000000E+00
  0.00000000E+00  0.00000000E+00  0.00000000E+00
  0.00000000E+00  0.00000000E+00  0.00000000E+00
  0.00000000E+00  0.00000000E+00  0.00000000E+00
  0.00000000E+00  0.00000000E+00  0.00000000E+00
  0.00000000E+00  0.00000000E+00  0.00000000E+00
  0.00000000E+00  0.00000000E+00  0.00000000E+00
  0.00000000E+00  0.00000000E+00  0.00000000E+00
  0.00000000E+00  0.00000000E+00  0.00000000E+00
  0.00000000E+00  0.00000000E+00  0.00000000E+00
  0.00000000E+00  0.00000000E+00  0.00000000E+00
  0.00000000E+00  0.00000000E+00  0.00000000E+00
  0.00000000E+00  0.00000000E+00  0.00000000E+00
  0.00000000E+00  0.00000000E+00  0.00000000E+00
  0.00000000E+00  0.00000000E+00  0.00000000E+00
  0.00000000E+00  0.00000000E+00  0.00000000E+00
  0.00000000E+00  0.00000000E+00  0.00000000E+00
  0.00000000E+00  0.00000000E+00  0.00000000E+00
  0.00000000E+00  0.00000000E+00  0.00000000E+00
  0.00000000E+00  0.00000000E+00  0.00000000E+00
  0.00000000E+00  0.00000000E+00  0.00000000E+00
  0.00000000E+00  0.00000000E+00  0.00000000E+00
  0.00000000E+00  0.00000000E+00  0.00000000E+00
  0.00000000E+00  0.00000000E+00  0.00000000E+00
  0.00000000E+00  0.00000000E+00  0.00000000E+00
  0.00000000E+00  0.00000000E+00  0.00000000E+00
  0.00000000E+00  0.00000000E+00  0.00000000E+00
  0.00000000E+00  0.00000000E+00  0.00000000E+00
  0.00000000E+00  0.00000000E+00  0.00000000E+00
  0.00000000E+00  0.00000000E+00  0.00000000E+00
  0.00000000E+00  0.00000000E+00  0.00000000E+00
  0.00000000E+00  0.00000000E+00  0.00000000E+00
  0.00000000E+00  0.00000000E+00  0.00000000E+00
  0.00000000E+00  0.00000000E+00  0.00000000E+00
  0.00000000E+00  0.00000000E+00  0.00000000E+00
  0.00000000E+00  0.00000000E+00  0.00000000E+00
  0.00000000E+00  0.00000000E+00  0.00000000E+00
  0.00000000E+00  0.00000000E+00  0.00000000E+00
  0.00000000E+00  0.00000000E+00  0.00000000E+00
  0.00000000E+00  0.00000000E+00  0.00000000E+00
  0.00000000E+00  0.00000000E+00  0.00000000E+00
  0.00000000E+00  0.00000000E+00  0.00000000E+00
  0.00000000E+00  0.00000000E+00  0.00000000E+00
  0.00000000E+00  0.00000000E+00  0.00000000E+00
  0.00000000E+00  0.00000000E+00  0.00000000E+00
  0.00000000E+00  0.00000000E+00  0.00000000E+00
  0.00000000E+00  0.00000000E+00  0.00000000E+00
  0.00000000E+00  0.00000000E+00  0.00000000E+00
  0.00000000E+00  0.00000000E+00  0.00000000E+00
  0.00000000E+00  0.00000000E+00  0.00000000E+00
  0.00000000E+00  0.00000000E+00  0.00000000E+00
  0.00000000E+00  0.00000000E+00  0.00000000E+00
  0.00000000E+00  0.00000000E+00  0.00000000E+00
  0.00000000E+00  0.00000000E+00  0.00000000E+00
  0.00000000E+00  0.00000000E+00  0.00000000E+00
  0.00000000E+00  0.00000000E+00  0.00000000E+00
  0.00000000E+00  0.00000000E+00  0.00000000E+00
  0.00000000E+00  0.00000000E+00  0.00000000E+00
  0.00000000E+00  0.00000000E+00  0.00000000E+00
  0.00000000E+00  0.00000000E+00  0.00000000E+00
  0.00000000E+00  0.00000000E+00  0.00000000E+00
  0.00000000E+00  0.00000000E+00  0.00000000E+00
  0.00000000E+00  0.00000000E+00  0.00000000E+00
  0.00000000E+00  0.00000000E+00  0.00000000E+00
  0.00000000E+00  0.00000000E+00  0.00000000E+00
  0.00000000E+00  0.00000000E+00  0.00000000E+00
  0.00000000E+00  0.00000000E+00  0.00000000E+00
  0.00000000E+00  0.00000000E+00  0.00000000E+00
  0.00000000E+00  0.00000000E+00  0.00000000E+00
  0.00000000E+00  0.00000000E+00  0.00000000E+00
  0.00000000E+00  0.00000000E+00  0.00000000E+00
  0.00000000E+00  0.00000000E+00  0.00000000E+00
  0.00000000E+00  0.00000000E+00  0.00000000E+00
  0.00000000E+00  0.00000000E+00  0.00000000E+00
  0.00000000E+00  0.00000000E+00  0.00000000E+00
  0.00000000E+00  0.00000000E+00  0.00000000E+00
  0.00000000E+00  0.00000000E+00  0.00000000E+00
  0.00000000E+00  0.00000000E+00  0.00000000E+00
  0.00000000E+00  0.00000000E+00  0.00000000E+00
  0.00000000E+00  0.00000000E+00  0.00000000E+00
  0.00000000E+00  0.00000000E+00  0.00000000E+00
  0.00000000E+00  0.00000000E+00  0.00000000E+00
  0.00000000E+00  0.00000000E+00  0.00000000E+00
  0.00000000E+00  0.00000000E+00  0.00000000E+00
  0.00000000E+00  0.00000000E+00  0.00000000E+00
  0.00000000E+00  0.00000000E+00  0.00000000E+00
  0.00000000E+00  0.00000000E+00  0.00000000E+00
  0.00000000E+00  0.00000000E+00  0.00000000E+00
  0.00000000E+00  0.00000000E+00  0.00000000E+00
  0.00000000E+00  0.00000000E+00  0.00000000E+00
  0.00000000E+00  0.00000000E+00  0.00000000E+00
  0.00000000E+00  0.00000000E+00  0.00000000E+00
  0.00000000E+00  0.00000000E+00  0.00000000E+00
  0.00000000E+00  0.00000000E+00  0.00000000E+00
  0.00000000E+00  0.00000000E+00  0.00000000E+00
  0.00000000E+00  0.00000000E+00  0.00000000E+00
  0.00000000E+00  0.00000000E+00  0.00000000E+00
  0.00000000E+00  0.00000000E+00  0.00000000E+00
  0.00000000E+00  0.00000000E+00  0.00000000E+00
  0.00000000E+00  0.00000000E+00  0.00000000E+00
  0.00000000E+00  0.00000000E+00  0.00000000E+00
  0.00000000E+00  0.00000000E+00  0.00000000E+00
  0.00000000E+00  0.00000000E+00  0.00000000E+00
  0.00000000E+00  0.00000000E+00  0.00000000E+00
  0.00000000E+00  0.00000000E+00  0.00000000E+00
  0.00000000E+00  0.00000000E+00  0.00000000E+00
  0.00000000E+00  0.00000000E+00  0.00000000E+00
  0.00000000E+00  0.00000000E+00  0.00000000E+00
  0.00000000E+00  0.00000000E+00  0.00000000E+00
  0.00000000E+00  0.00000000E+00  0.00000000E+00
  0.00000000E+00  0.00000000E+00  0.00000000E+00
  0.00000000E+00  0.00000000E+00  0.00000000E+00
  0.00000000E+00  0.00000000E+00  0.00000000E+00
  0.00000000E+00  0.00000000E+00  0.00000000E+00
  0.00000000E+00  0.00000000E+00  0.00000000E+00
  0.00000000E+00  0.00000000E+00  0.00000000E+00
  0.00000000E+00  0.00000000E+00  0.00000000E+00
  0.00000000E+00  0.00000000E+00  0.00000000E+00
  0.00000000E+00  0.00000000E+00  0.00000000E+00
  0.00000000E+00  0.00000000E+00  0.00000000E+00
  0.00000000E+00  0.00000000E+00  0.00000000E+00
  0.00000000E+00  0.00000000E+00  0.00000000E+00
  0.00000000E+00  0.00000000E+00  0.00000000E+00
  0.00000000E+00  0.00000000E+00  0.00000000E+00
  0.00000000E+00  0.00000000E+00  0.00000000E+00
  0.00000000E+00  0.00000000E+00  0.00000000E+00
  0.00000000E+00  0.00000000E+00  0.00000000E+00
  0.00000000E+00  0.00000000E+00  0.00000000E+00
  0.00000000E+00  0.00000000E+00  0.00000000E+00
  0.00000000E+00  0.00000000E+00  0.00000000E+00
  0.00000000E+00  0.00000000E+00  0.00000000E+00
  0.00000000E+00  0.00000000E+00  0.00000000E+00
  0.00000000E+00  0.00000000E+00  0.00000000E+00
  0.00000000E+00  0.00000000E+00  0.00000000E+00
  0.00000000E+00  0.00000000E+00  0.00000000E+00
  0.00000000E+00  0.00000000E+00  0.00000000E+00
  0.00000000E+00  0.00000000E+00  0.00000000E+00
  0.00000000E+00  0.00000000E+00  0.00000000E+00
  0.00000000E+00  0.00000000E+00  0.00000000E+00
  0.00000000E+00  0.00000000E+00  0.00000000E+00
  0.00000000E+00  0.00000000E+00  0.00000000E+00
  0.00000000E+00  0.00000000E+00  0.00000000E+00
  0.00000000E+00  0.00000000E+00  0.00000000E+00
  0.00000000E+00  0.00000000E+00  0.00000000E+00
  0.00000000E+00  0.00000000E+00  0.00000000E+00
  0.00000000E+00  0.00000000E+00  0.00000000E+00
  0.00000000E+00  0.00000000E+00  0.00000000E+00
  0.00000000E+00  0.00000000E+00  0.00000000E+00
  0.00000000E+00  0.00000000E+00  0.00000000E+00
  0.00000000E+00  0.00000000E+00  0.00000000E+00
  0.00000000E+00  0.00000000E+00  0.00000000E+00
  0.00000000E+00  0.00000000E+00  0.00000000E+00
  0.00000000E+00  0.00000000E+00  0.00000000E+00
  0.00000000E+00  0.00000000E+00  0.00000000E+00
  0.00000000E+00  0.00000000E+00  0.00000000E+00
  0.00000000E+00  0.00000000E+00  0.00000000E+00
  0.00000000E+00  0.00000000E+00  0.00000000E+00
  0.00000000E+00  0.00000000E+00  0.00000000E+00
  0.00000000E+00  0.00000000E+00  0.00000000E+00
  0.00000000E+00  0.00000000E+00  0.00000000E+00
  0.00000000E+00  0.00000000E+00  0.00000000E+00
