Ti  O                                   
   1.0000000000000000     
    12.9397018140796050    0.0000000000000000    0.0000000000000000
     0.0000000000000000   11.7607933361136769    0.0000000000000000
     0.0000000000000000    0.0000000000000000   27.4700620652772756
   Ti   O 
    80   160
Selective dynamics
Direct
  0.7500000000000000  0.6250000000000000  0.2644762908920484   F   F   F
  0.0000000000000000  0.7500000000000000  0.2644762908920484   F   F   F
  0.0000000000000000  0.6250000000000000  0.3822381454460242   F   F   F
  0.7500000000000000  0.7500000000000000  0.3822381454460242   F   F   F
  0.7500000000000000  0.6250000000000000  0.5000000000000000   F   F   F
  0.0000000000000000  0.7500000000000000  0.5000000000000000   F   F   F
  0.0000000812121403  0.6249999998238003  0.6154746229285011   T   T   T
  0.7500000109397991  0.7499999984631264  0.6219746378912138   T   T   T
  0.7499999482321100  0.6249999908467404  0.7430077522464358   T   T   T
 -0.0000000206320991  0.7499999996992411  0.7305335462347576   T   T   T
  0.7500000000000000  0.8750000000000000  0.2644762908920484   F   F   F
  0.0000000000000000  0.0000000000000000  0.2644762908920484   F   F   F
  0.0000000000000000  0.8750000000000000  0.3822381454460242   F   F   F
  0.7500000000000000  0.0000000000000000  0.3822381454460242   F   F   F
  0.7500000000000000  0.8750000000000000  0.5000000000000000   F   F   F
  0.0000000000000000  0.0000000000000000  0.5000000000000000   F   F   F
  0.0000000278676675  0.8750000111579416  0.6154746249854770   T   T   T
  0.7500000046441710  0.0000000180926756  0.6219746431930162   T   T   T
  0.7499999412704428  0.8750000267012953  0.7430077532611622   T   T   T
 -0.0000000251517329 -0.0000000003809929  0.7305335356293396   T   T   T
  0.7500000000000000  0.1250000000000000  0.2644762908920484   F   F   F
  0.0000000000000000  0.2500000000000000  0.2644762908920484   F   F   F
  0.0000000000000000  0.1250000000000000  0.3822381454460242   F   F   F
  0.7500000000000000  0.2500000000000000  0.3822381454460242   F   F   F
  0.7500000000000000  0.1250000000000000  0.5000000000000000   F   F   F
  0.0000000000000000  0.2500000000000000  0.5000000000000000   F   F   F
  0.0000000581800804  0.1249999986503093  0.6154746251860980   T   T   T
  0.7500000058294335  0.2500000014659793  0.6219746408314670   T   T   T
  0.7499999453471142  0.1249999955185148  0.7430077524486260   T   T   T
 -0.0000000200504273  0.2500000004347756  0.7305335467791162   T   T   T
  0.7500000000000000  0.3750000000000000  0.2644762908920484   F   F   F
  0.0000000000000000  0.5000000000000000  0.2644762908920484   F   F   F
  0.0000000000000000  0.3750000000000000  0.3822381454460242   F   F   F
  0.7500000000000000  0.5000000000000000  0.3822381454460242   F   F   F
  0.7500000000000000  0.3750000000000000  0.5000000000000000   F   F   F
  0.0000000000000000  0.5000000000000000  0.5000000000000000   F   F   F
  0.0000000424874282  0.3750000081550940  0.6154746254060156   T   T   T
  0.7500000264405792  0.5000000205902798  0.6219746415406795   T   T   T
  0.7499999502724014  0.3750000199750914  0.7430077567637937   T   T   T
 -0.0000000174026370  0.4999999988329475  0.7305335355077357   T   T   T
  0.2500000000000000  0.6250000000000000  0.2644762908920484   F   F   F
  0.5000000000000000  0.7500000000000000  0.2644762908920484   F   F   F
  0.5000000000000000  0.6250000000000000  0.3822381454460242   F   F   F
  0.2500000000000000  0.7500000000000000  0.3822381454460242   F   F   F
  0.2500000000000000  0.6250000000000000  0.5000000000000000   F   F   F
  0.5000000000000000  0.7500000000000000  0.5000000000000000   F   F   F
  0.5000000377884447  0.6250000008934009  0.6154746249231970   T   T   T
  0.2500000099619731  0.7500000207643501  0.6219746331076085   T   T   T
  0.2499999498903917  0.6249999943038671  0.7430077459817780   T   T   T
  0.4999999845299357  0.7500000012317335  0.7305335479495727   T   T   T
  0.2500000000000000  0.8750000000000000  0.2644762908920484   F   F   F
  0.5000000000000000  0.0000000000000000  0.2644762908920484   F   F   F
  0.5000000000000000  0.8750000000000000  0.3822381454460242   F   F   F
  0.2500000000000000  0.0000000000000000  0.3822381454460242   F   F   F
  0.2500000000000000  0.8750000000000000  0.5000000000000000   F   F   F
  0.5000000000000000  0.0000000000000000  0.5000000000000000   F   F   F
  0.5000000650680424  0.8750000107673512  0.6154746232279069   T   T   T
  0.2500000059884243 -0.0000000053523189  0.6219746368910538   T   T   T
  0.2499999471691118  0.8750000178074622  0.7430077444861973   T   T   T
  0.4999999748730186  0.0000000018701608  0.7305335358748273   T   T   T
  0.2500000000000000  0.1250000000000000  0.2644762908920484   F   F   F
  0.5000000000000000  0.2500000000000000  0.2644762908920484   F   F   F
  0.5000000000000000  0.1250000000000000  0.3822381454460242   F   F   F
  0.2500000000000000  0.2500000000000000  0.3822381454460242   F   F   F
  0.2500000000000000  0.1250000000000000  0.5000000000000000   F   F   F
  0.5000000000000000  0.2500000000000000  0.5000000000000000   F   F   F
  0.5000000297659544  0.1249999978740582  0.6154746244074916   T   T   T
  0.2500000094789722  0.2500000112328933  0.6219746419897659   T   T   T
  0.2499999458294195  0.1249999887420027  0.7430077513021652   T   T   T
  0.4999999844954494  0.2500000031640059  0.7305335454931468   T   T   T
  0.2500000000000000  0.3750000000000000  0.2644762908920484   F   F   F
  0.5000000000000000  0.5000000000000000  0.2644762908920484   F   F   F
  0.5000000000000000  0.3750000000000000  0.3822381454460242   F   F   F
  0.2500000000000000  0.5000000000000000  0.3822381454460242   F   F   F
  0.2500000000000000  0.3750000000000000  0.5000000000000000   F   F   F
  0.5000000000000000  0.5000000000000000  0.5000000000000000   F   F   F
  0.5000000696870369  0.3750000107385486  0.6154746211912853   T   T   T
  0.2500000205356190  0.4999999928859924  0.6219746359102867   T   T   T
  0.2499999543182321  0.3750000202262604  0.7430077544396404   T   T   T
  0.4999999846635184  0.4999999971566307  0.7305335363822459   T   T   T
  0.7500000000000000  0.7500000000000000  0.2184196011549631   F   F   F
  0.7500000000000000  0.7500000000000000  0.3105329806291266   F   F   F
  0.0977750603357990  0.6250000000000000  0.2644762908920484   F   F   F
  0.9022249396642081  0.6250000000000000  0.2644762908920484   F   F   F
  0.0000000000000000  0.7500000000000000  0.3361814557089389   F   F   F
  0.0000000000000000  0.7500000000000000  0.4282948351831024   F   F   F
  0.8477750603357990  0.6250000000000000  0.3822381454460242   F   F   F
  0.1522249396642081  0.6250000000000000  0.3822381454460242   F   F   F
  0.7500000000000000  0.7500000000000000  0.4539433102629218   F   F   F
  0.7500000000000000  0.7500000000000000  0.5460566897370782   F   F   F
  0.0977750603357919  0.6250000000000000  0.5000000000000000   F   F   F
  0.9022249396642081  0.6250000000000000  0.5000000000000000   F   F   F
 -0.0000001497984765  0.7500000062899245  0.5721934396861913   T   T   T
  0.0000001462781279  0.7500000006445658  0.6644562982527057   T   T   T
  0.8498977237472742  0.6249999420847541  0.6184094903823482   T   T   T
  0.1501022333426640  0.6249999455930976  0.6184092210979550   T   T   T
  0.7499997635719100  0.7499999836072959  0.6898114906370078   T   T   T
  0.7500000073247441  0.7499999928968125  0.7825109996983030   T   T   T
  0.0936828461831549  0.6249999501545459  0.7419597291173556   T   T   T
  0.9063170185928081  0.6249999541560335  0.7419596047303163   T   T   T
  0.7500000000000000  0.0000000000000000  0.2184196011549631   F   F   F
  0.7500000000000000  0.0000000000000000  0.3105329806291266   F   F   F
  0.0977750603357990  0.8750000000000000  0.2644762908920484   F   F   F
  0.9022249396642081  0.8750000000000000  0.2644762908920484   F   F   F
  0.0000000000000000  0.0000000000000000  0.3361814557089389   F   F   F
  0.0000000000000000  0.0000000000000000  0.4282948351831024   F   F   F
  0.8477750603357990  0.8750000000000000  0.3822381454460242   F   F   F
  0.1522249396642081  0.8750000000000000  0.3822381454460242   F   F   F
  0.7500000000000000  0.0000000000000000  0.4539433102629218   F   F   F
  0.7500000000000000  0.0000000000000000  0.5460566897370782   F   F   F
  0.0977750603357919  0.8750000000000000  0.5000000000000000   F   F   F
  0.9022249396642081  0.8750000000000000  0.5000000000000000   F   F   F
 -0.0000001489221345  0.0000000033249725  0.5721934261929060   T   T   T
  0.0000001447607525 -0.0000000009993829  0.6644562897132500   T   T   T
  0.8498977242740023  0.8750000628730447  0.6184094924022242   T   T   T
  0.1501022308106892  0.8750000612226393  0.6184092254618279   T   T   T
  0.7499997303329597 -0.0000000294318379  0.6898115086142309   T   T   T
  0.7500000637855950  0.0000000011023570  0.7825110103340620   T   T   T
  0.0936828431877115  0.8750000465568067  0.7419597292543449   T   T   T
  0.9063170171264928  0.8750000365209281  0.7419596055161506   T   T   T
  0.7500000000000000  0.2500000000000000  0.2184196011549631   F   F   F
  0.7500000000000000  0.2500000000000000  0.3105329806291266   F   F   F
  0.0977750603357990  0.1250000000000000  0.2644762908920484   F   F   F
  0.9022249396642081  0.1250000000000000  0.2644762908920484   F   F   F
  0.0000000000000000  0.2500000000000000  0.3361814557089389   F   F   F
  0.0000000000000000  0.2500000000000000  0.4282948351831024   F   F   F
  0.8477750603357990  0.1250000000000000  0.3822381454460242   F   F   F
  0.1522249396642081  0.1250000000000000  0.3822381454460242   F   F   F
  0.7500000000000000  0.2500000000000000  0.4539433102629218   F   F   F
  0.7500000000000000  0.2500000000000000  0.5460566897370782   F   F   F
  0.0977750603357919  0.1250000000000000  0.5000000000000000   F   F   F
  0.9022249396642081  0.1250000000000000  0.5000000000000000   F   F   F
 -0.0000001525918363  0.2499999995043432  0.5721934404350449   T   T   T
  0.0000001572593323  0.2500000018195082  0.6644562989161783   T   T   T
  0.8498977219088856  0.1249999320759480  0.6184094974113213   T   T   T
  0.1501022323363264  0.1249999394556890  0.6184092279491498   T   T   T
  0.7499997710658881  0.2499999845202131  0.6898114943068021   T   T   T
  0.7500000176229309  0.2499999963882694  0.7825110059668798   T   T   T
  0.0936828419211794  0.1249999562408209  0.7419597314110623   T   T   T
  0.9063170183384778  0.1249999581989512  0.7419596056251518   T   T   T
  0.7500000000000000  0.5000000000000000  0.2184196011549631   F   F   F
  0.7500000000000000  0.5000000000000000  0.3105329806291266   F   F   F
  0.0977750603357990  0.3750000000000000  0.2644762908920484   F   F   F
  0.9022249396642081  0.3750000000000000  0.2644762908920484   F   F   F
  0.0000000000000000  0.5000000000000000  0.3361814557089389   F   F   F
  0.0000000000000000  0.5000000000000000  0.4282948351831024   F   F   F
  0.8477750603357990  0.3750000000000000  0.3822381454460242   F   F   F
  0.1522249396642081  0.3750000000000000  0.3822381454460242   F   F   F
  0.7500000000000000  0.5000000000000000  0.4539433102629218   F   F   F
  0.7500000000000000  0.5000000000000000  0.5460566897370782   F   F   F
  0.0977750603357919  0.3750000000000000  0.5000000000000000   F   F   F
  0.9022249396642081  0.3750000000000000  0.5000000000000000   F   F   F
 -0.0000001519106608  0.5000000007071510  0.5721934261010315   T   T   T
  0.0000001584509340  0.5000000039354366  0.6644562890917510   T   T   T
  0.8498977296978376  0.3750000507070557  0.6184094933783586   T   T   T
  0.1501022377664213  0.3750000543603212  0.6184092205210684   T   T   T
  0.7499997409279801  0.4999999761118063  0.6898115058814642   T   T   T
  0.7500000527730853  0.4999999988060543  0.7825110124668619   T   T   T
  0.0936828475414581  0.3750000356232643  0.7419597286686512   T   T   T
  0.9063170203531220  0.3750000457445507  0.7419596077062763   T   T   T
  0.2500000000000000  0.7500000000000000  0.2184196011549631   F   F   F
  0.2500000000000000  0.7500000000000000  0.3105329806291266   F   F   F
  0.5977750603357990  0.6250000000000000  0.2644762908920484   F   F   F
  0.4022249396642081  0.6250000000000000  0.2644762908920484   F   F   F
  0.5000000000000000  0.7500000000000000  0.3361814557089389   F   F   F
  0.5000000000000000  0.7500000000000000  0.4282948351831024   F   F   F
  0.3477750603357990  0.6250000000000000  0.3822381454460242   F   F   F
  0.6522249396642081  0.6250000000000000  0.3822381454460242   F   F   F
  0.2500000000000000  0.7500000000000000  0.4539433102629218   F   F   F
  0.2500000000000000  0.7500000000000000  0.5460566897370782   F   F   F
  0.5977750603357919  0.6250000000000000  0.5000000000000000   F   F   F
  0.4022249396642010  0.6250000000000000  0.5000000000000000   F   F   F
  0.4999998499697655  0.7500000017554811  0.5721934400131697   T   T   T
  0.5000001560568303  0.7500000028058503  0.6644562989531416   T   T   T
  0.3498977286676744  0.6249999474593805  0.6184094862824387   T   T   T
  0.6501022335599302  0.6249999424898651  0.6184092279006710   T   T   T
  0.2499997482292685  0.7500000001802406  0.6898114846080420   T   T   T
  0.2500000448109905  0.7499999972456252  0.7825109934097587   T   T   T
  0.5936828433205389  0.6249999463732050  0.7419597418438251   T   T   T
  0.4063170161926919  0.6249999512069414  0.7419595943230460   T   T   T
  0.2500000000000000  0.0000000000000000  0.2184196011549631   F   F   F
  0.2500000000000000  0.0000000000000000  0.3105329806291266   F   F   F
  0.5977750603357990  0.8750000000000000  0.2644762908920484   F   F   F
  0.4022249396642081  0.8750000000000000  0.2644762908920484   F   F   F
  0.5000000000000000  0.0000000000000000  0.3361814557089389   F   F   F
  0.5000000000000000  0.0000000000000000  0.4282948351831024   F   F   F
  0.3477750603357990  0.8750000000000000  0.3822381454460242   F   F   F
  0.6522249396642081  0.8750000000000000  0.3822381454460242   F   F   F
  0.2500000000000000  0.0000000000000000  0.4539433102629218   F   F   F
  0.2500000000000000  0.0000000000000000  0.5460566897370782   F   F   F
  0.5977750603357919  0.8750000000000000  0.5000000000000000   F   F   F
  0.4022249396642010  0.8750000000000000  0.5000000000000000   F   F   F
  0.4999998481458028  0.0000000036664897  0.5721934255255771   T   T   T
  0.5000001505646365  0.0000000024604901  0.6644562882162096   T   T   T
  0.3498977259938449  0.8750000581446109  0.6184094883392591   T   T   T
  0.6501022261019794  0.8750000539810115  0.6184092274198016   T   T   T
  0.2499997589028148 -0.0000000086244533  0.6898115037356705   T   T   T
  0.2500000253737120 -0.0000000023001626  0.7825110068045359   T   T   T
  0.5936828390555879  0.8750000456489132  0.7419597453170688   T   T   T
  0.4063170182158840  0.8750000402310830  0.7419595977512599   T   T   T
  0.2500000000000000  0.2500000000000000  0.2184196011549631   F   F   F
  0.2500000000000000  0.2500000000000000  0.3105329806291266   F   F   F
  0.5977750603357990  0.1250000000000000  0.2644762908920484   F   F   F
  0.4022249396642081  0.1250000000000000  0.2644762908920484   F   F   F
  0.5000000000000000  0.2500000000000000  0.3361814557089389   F   F   F
  0.5000000000000000  0.2500000000000000  0.4282948351831024   F   F   F
  0.3477750603357990  0.1250000000000000  0.3822381454460242   F   F   F
  0.6522249396642081  0.1250000000000000  0.3822381454460242   F   F   F
  0.2500000000000000  0.2500000000000000  0.4539433102629218   F   F   F
  0.2500000000000000  0.2500000000000000  0.5460566897370782   F   F   F
  0.5977750603357919  0.1250000000000000  0.5000000000000000   F   F   F
  0.4022249396642010  0.1250000000000000  0.5000000000000000   F   F   F
  0.4999998471031956  0.2500000007075666  0.5721934385623753   T   T   T
  0.5000001536816348  0.2500000082950606  0.6644562947378263   T   T   T
  0.3498977290327259  0.1249999408182093  0.6184094899504788   T   T   T
  0.6501022295402663  0.1249999399384216  0.6184092339514207   T   T   T
  0.2499997531341562  0.2499999989835534  0.6898114891508617   T   T   T
  0.2500000295328428  0.2500000014415792  0.7825110005302206   T   T   T
  0.5936828421813686  0.1249999553159260  0.7419597386159206   T   T   T
  0.4063170152472766  0.1249999643452656  0.7419595985348800   T   T   T
  0.2500000000000000  0.5000000000000000  0.2184196011549631   F   F   F
  0.2500000000000000  0.5000000000000000  0.3105329806291266   F   F   F
  0.5977750603357990  0.3750000000000000  0.2644762908920484   F   F   F
  0.4022249396642081  0.3750000000000000  0.2644762908920484   F   F   F
  0.5000000000000000  0.5000000000000000  0.3361814557089389   F   F   F
  0.5000000000000000  0.5000000000000000  0.4282948351831024   F   F   F
  0.3477750603357990  0.3750000000000000  0.3822381454460242   F   F   F
  0.6522249396642081  0.3750000000000000  0.3822381454460242   F   F   F
  0.2500000000000000  0.5000000000000000  0.4539433102629218   F   F   F
  0.2500000000000000  0.5000000000000000  0.5460566897370782   F   F   F
  0.5977750603357919  0.3750000000000000  0.5000000000000000   F   F   F
  0.4022249396642010  0.3750000000000000  0.5000000000000000   F   F   F
  0.4999998545038342  0.5000000064618559  0.5721934263778961   T   T   T
  0.5000001488766507  0.5000000005578812  0.6644562879721818   T   T   T
  0.3498977275220255  0.3750000568892197  0.6184094876311229   T   T   T
  0.6501022328266279  0.3750000510896195  0.6184092286453547   T   T   T
  0.2499997556475998  0.4999999855579294  0.6898115008160173   T   T   T
  0.2500000241115919  0.5000000064648613  0.7825110099288101   T   T   T
  0.5936828467960443  0.3750000415942737  0.7419597381827486   T   T   T
  0.4063170199226896  0.3750000358154300  0.7419596055696327   T   T   T

  0.00000000E+00  0.00000000E+00  0.00000000E+00
  0.00000000E+00  0.00000000E+00  0.00000000E+00
  0.00000000E+00  0.00000000E+00  0.00000000E+00
  0.00000000E+00  0.00000000E+00  0.00000000E+00
  0.00000000E+00  0.00000000E+00  0.00000000E+00
  0.00000000E+00  0.00000000E+00  0.00000000E+00
  0.00000000E+00  0.00000000E+00  0.00000000E+00
  0.00000000E+00  0.00000000E+00  0.00000000E+00
  0.00000000E+00  0.00000000E+00  0.00000000E+00
  0.00000000E+00  0.00000000E+00  0.00000000E+00
  0.00000000E+00  0.00000000E+00  0.00000000E+00
  0.00000000E+00  0.00000000E+00  0.00000000E+00
  0.00000000E+00  0.00000000E+00  0.00000000E+00
  0.00000000E+00  0.00000000E+00  0.00000000E+00
  0.00000000E+00  0.00000000E+00  0.00000000E+00
  0.00000000E+00  0.00000000E+00  0.00000000E+00
  0.00000000E+00  0.00000000E+00  0.00000000E+00
  0.00000000E+00  0.00000000E+00  0.00000000E+00
  0.00000000E+00  0.00000000E+00  0.00000000E+00
  0.00000000E+00  0.00000000E+00  0.00000000E+00
  0.00000000E+00  0.00000000E+00  0.00000000E+00
  0.00000000E+00  0.00000000E+00  0.00000000E+00
  0.00000000E+00  0.00000000E+00  0.00000000E+00
  0.00000000E+00  0.00000000E+00  0.00000000E+00
  0.00000000E+00  0.00000000E+00  0.00000000E+00
  0.00000000E+00  0.00000000E+00  0.00000000E+00
  0.00000000E+00  0.00000000E+00  0.00000000E+00
  0.00000000E+00  0.00000000E+00  0.00000000E+00
  0.00000000E+00  0.00000000E+00  0.00000000E+00
  0.00000000E+00  0.00000000E+00  0.00000000E+00
  0.00000000E+00  0.00000000E+00  0.00000000E+00
  0.00000000E+00  0.00000000E+00  0.00000000E+00
  0.00000000E+00  0.00000000E+00  0.00000000E+00
  0.00000000E+00  0.00000000E+00  0.00000000E+00
  0.00000000E+00  0.00000000E+00  0.00000000E+00
  0.00000000E+00  0.00000000E+00  0.00000000E+00
  0.00000000E+00  0.00000000E+00  0.00000000E+00
  0.00000000E+00  0.00000000E+00  0.00000000E+00
  0.00000000E+00  0.00000000E+00  0.00000000E+00
  0.00000000E+00  0.00000000E+00  0.00000000E+00
  0.00000000E+00  0.00000000E+00  0.00000000E+00
  0.00000000E+00  0.00000000E+00  0.00000000E+00
  0.00000000E+00  0.00000000E+00  0.00000000E+00
  0.00000000E+00  0.00000000E+00  0.00000000E+00
  0.00000000E+00  0.00000000E+00  0.00000000E+00
  0.00000000E+00  0.00000000E+00  0.00000000E+00
  0.00000000E+00  0.00000000E+00  0.00000000E+00
  0.00000000E+00  0.00000000E+00  0.00000000E+00
  0.00000000E+00  0.00000000E+00  0.00000000E+00
  0.00000000E+00  0.00000000E+00  0.00000000E+00
  0.00000000E+00  0.00000000E+00  0.00000000E+00
  0.00000000E+00  0.00000000E+00  0.00000000E+00
  0.00000000E+00  0.00000000E+00  0.00000000E+00
  0.00000000E+00  0.00000000E+00  0.00000000E+00
  0.00000000E+00  0.00000000E+00  0.00000000E+00
  0.00000000E+00  0.00000000E+00  0.00000000E+00
  0.00000000E+00  0.00000000E+00  0.00000000E+00
  0.00000000E+00  0.00000000E+00  0.00000000E+00
  0.00000000E+00  0.00000000E+00  0.00000000E+00
  0.00000000E+00  0.00000000E+00  0.00000000E+00
  0.00000000E+00  0.00000000E+00  0.00000000E+00
  0.00000000E+00  0.00000000E+00  0.00000000E+00
  0.00000000E+00  0.00000000E+00  0.00000000E+00
  0.00000000E+00  0.00000000E+00  0.00000000E+00
  0.00000000E+00  0.00000000E+00  0.00000000E+00
  0.00000000E+00  0.00000000E+00  0.00000000E+00
  0.00000000E+00  0.00000000E+00  0.00000000E+00
  0.00000000E+00  0.00000000E+00  0.00000000E+00
  0.00000000E+00  0.00000000E+00  0.00000000E+00
  0.00000000E+00  0.00000000E+00  0.00000000E+00
  0.00000000E+00  0.00000000E+00  0.00000000E+00
  0.00000000E+00  0.00000000E+00  0.00000000E+00
  0.00000000E+00  0.00000000E+00  0.00000000E+00
  0.00000000E+00  0.00000000E+00  0.00000000E+00
  0.00000000E+00  0.00000000E+00  0.00000000E+00
  0.00000000E+00  0.00000000E+00  0.00000000E+00
  0.00000000E+00  0.00000000E+00  0.00000000E+00
  0.00000000E+00  0.00000000E+00  0.00000000E+00
  0.00000000E+00  0.00000000E+00  0.00000000E+00
  0.00000000E+00  0.00000000E+00  0.00000000E+00
  0.00000000E+00  0.00000000E+00  0.00000000E+00
  0.00000000E+00  0.00000000E+00  0.00000000E+00
  0.00000000E+00  0.00000000E+00  0.00000000E+00
  0.00000000E+00  0.00000000E+00  0.00000000E+00
  0.00000000E+00  0.00000000E+00  0.00000000E+00
  0.00000000E+00  0.00000000E+00  0.00000000E+00
  0.00000000E+00  0.00000000E+00  0.00000000E+00
  0.00000000E+00  0.00000000E+00  0.00000000E+00
  0.00000000E+00  0.00000000E+00  0.00000000E+00
  0.00000000E+00  0.00000000E+00  0.00000000E+00
  0.00000000E+00  0.00000000E+00  0.00000000E+00
  0.00000000E+00  0.00000000E+00  0.00000000E+00
  0.00000000E+00  0.00000000E+00  0.00000000E+00
  0.00000000E+00  0.00000000E+00  0.00000000E+00
  0.00000000E+00  0.00000000E+00  0.00000000E+00
  0.00000000E+00  0.00000000E+00  0.00000000E+00
  0.00000000E+00  0.00000000E+00  0.00000000E+00
  0.00000000E+00  0.00000000E+00  0.00000000E+00
  0.00000000E+00  0.00000000E+00  0.00000000E+00
  0.00000000E+00  0.00000000E+00  0.00000000E+00
  0.00000000E+00  0.00000000E+00  0.00000000E+00
  0.00000000E+00  0.00000000E+00  0.00000000E+00
  0.00000000E+00  0.00000000E+00  0.00000000E+00
  0.00000000E+00  0.00000000E+00  0.00000000E+00
  0.00000000E+00  0.00000000E+00  0.00000000E+00
  0.00000000E+00  0.00000000E+00  0.00000000E+00
  0.00000000E+00  0.00000000E+00  0.00000000E+00
  0.00000000E+00  0.00000000E+00  0.00000000E+00
  0.00000000E+00  0.00000000E+00  0.00000000E+00
  0.00000000E+00  0.00000000E+00  0.00000000E+00
  0.00000000E+00  0.00000000E+00  0.00000000E+00
  0.00000000E+00  0.00000000E+00  0.00000000E+00
  0.00000000E+00  0.00000000E+00  0.00000000E+00
  0.00000000E+00  0.00000000E+00  0.00000000E+00
  0.00000000E+00  0.00000000E+00  0.00000000E+00
  0.00000000E+00  0.00000000E+00  0.00000000E+00
  0.00000000E+00  0.00000000E+00  0.00000000E+00
  0.00000000E+00  0.00000000E+00  0.00000000E+00
  0.00000000E+00  0.00000000E+00  0.00000000E+00
  0.00000000E+00  0.00000000E+00  0.00000000E+00
  0.00000000E+00  0.00000000E+00  0.00000000E+00
  0.00000000E+00  0.00000000E+00  0.00000000E+00
  0.00000000E+00  0.00000000E+00  0.00000000E+00
  0.00000000E+00  0.00000000E+00  0.00000000E+00
  0.00000000E+00  0.00000000E+00  0.00000000E+00
  0.00000000E+00  0.00000000E+00  0.00000000E+00
  0.00000000E+00  0.00000000E+00  0.00000000E+00
  0.00000000E+00  0.00000000E+00  0.00000000E+00
  0.00000000E+00  0.00000000E+00  0.00000000E+00
  0.00000000E+00  0.00000000E+00  0.00000000E+00
  0.00000000E+00  0.00000000E+00  0.00000000E+00
  0.00000000E+00  0.00000000E+00  0.00000000E+00
  0.00000000E+00  0.00000000E+00  0.00000000E+00
  0.00000000E+00  0.00000000E+00  0.00000000E+00
  0.00000000E+00  0.00000000E+00  0.00000000E+00
  0.00000000E+00  0.00000000E+00  0.00000000E+00
  0.00000000E+00  0.00000000E+00  0.00000000E+00
  0.00000000E+00  0.00000000E+00  0.00000000E+00
  0.00000000E+00  0.00000000E+00  0.00000000E+00
  0.00000000E+00  0.00000000E+00  0.00000000E+00
  0.00000000E+00  0.00000000E+00  0.00000000E+00
  0.00000000E+00  0.00000000E+00  0.00000000E+00
  0.00000000E+00  0.00000000E+00  0.00000000E+00
  0.00000000E+00  0.00000000E+00  0.00000000E+00
  0.00000000E+00  0.00000000E+00  0.00000000E+00
  0.00000000E+00  0.00000000E+00  0.00000000E+00
  0.00000000E+00  0.00000000E+00  0.00000000E+00
  0.00000000E+00  0.00000000E+00  0.00000000E+00
  0.00000000E+00  0.00000000E+00  0.00000000E+00
  0.00000000E+00  0.00000000E+00  0.00000000E+00
  0.00000000E+00  0.00000000E+00  0.00000000E+00
  0.00000000E+00  0.00000000E+00  0.00000000E+00
  0.00000000E+00  0.00000000E+00  0.00000000E+00
  0.00000000E+00  0.00000000E+00  0.00000000E+00
  0.00000000E+00  0.00000000E+00  0.00000000E+00
  0.00000000E+00  0.00000000E+00  0.00000000E+00
  0.00000000E+00  0.00000000E+00  0.00000000E+00
  0.00000000E+00  0.00000000E+00  0.00000000E+00
  0.00000000E+00  0.00000000E+00  0.00000000E+00
  0.00000000E+00  0.00000000E+00  0.00000000E+00
  0.00000000E+00  0.00000000E+00  0.00000000E+00
  0.00000000E+00  0.00000000E+00  0.00000000E+00
  0.00000000E+00  0.00000000E+00  0.00000000E+00
  0.00000000E+00  0.00000000E+00  0.00000000E+00
  0.00000000E+00  0.00000000E+00  0.00000000E+00
  0.00000000E+00  0.00000000E+00  0.00000000E+00
  0.00000000E+00  0.00000000E+00  0.00000000E+00
  0.00000000E+00  0.00000000E+00  0.00000000E+00
  0.00000000E+00  0.00000000E+00  0.00000000E+00
  0.00000000E+00  0.00000000E+00  0.00000000E+00
  0.00000000E+00  0.00000000E+00  0.00000000E+00
  0.00000000E+00  0.00000000E+00  0.00000000E+00
  0.00000000E+00  0.00000000E+00  0.00000000E+00
  0.00000000E+00  0.00000000E+00  0.00000000E+00
  0.00000000E+00  0.00000000E+00  0.00000000E+00
  0.00000000E+00  0.00000000E+00  0.00000000E+00
  0.00000000E+00  0.00000000E+00  0.00000000E+00
  0.00000000E+00  0.00000000E+00  0.00000000E+00
  0.00000000E+00  0.00000000E+00  0.00000000E+00
  0.00000000E+00  0.00000000E+00  0.00000000E+00
  0.00000000E+00  0.00000000E+00  0.00000000E+00
  0.00000000E+00  0.00000000E+00  0.00000000E+00
  0.00000000E+00  0.00000000E+00  0.00000000E+00
  0.00000000E+00  0.00000000E+00  0.00000000E+00
  0.00000000E+00  0.00000000E+00  0.00000000E+00
  0.00000000E+00  0.00000000E+00  0.00000000E+00
  0.00000000E+00  0.00000000E+00  0.00000000E+00
  0.00000000E+00  0.00000000E+00  0.00000000E+00
  0.00000000E+00  0.00000000E+00  0.00000000E+00
  0.00000000E+00  0.00000000E+00  0.00000000E+00
  0.00000000E+00  0.00000000E+00  0.00000000E+00
  0.00000000E+00  0.00000000E+00  0.00000000E+00
  0.00000000E+00  0.00000000E+00  0.00000000E+00
  0.00000000E+00  0.00000000E+00  0.00000000E+00
  0.00000000E+00  0.00000000E+00  0.00000000E+00
  0.00000000E+00  0.00000000E+00  0.00000000E+00
  0.00000000E+00  0.00000000E+00  0.00000000E+00
  0.00000000E+00  0.00000000E+00  0.00000000E+00
  0.00000000E+00  0.00000000E+00  0.00000000E+00
  0.00000000E+00  0.00000000E+00  0.00000000E+00
  0.00000000E+00  0.00000000E+00  0.00000000E+00
  0.00000000E+00  0.00000000E+00  0.00000000E+00
  0.00000000E+00  0.00000000E+00  0.00000000E+00
  0.00000000E+00  0.00000000E+00  0.00000000E+00
  0.00000000E+00  0.00000000E+00  0.00000000E+00
  0.00000000E+00  0.00000000E+00  0.00000000E+00
  0.00000000E+00  0.00000000E+00  0.00000000E+00
  0.00000000E+00  0.00000000E+00  0.00000000E+00
  0.00000000E+00  0.00000000E+00  0.00000000E+00
  0.00000000E+00  0.00000000E+00  0.00000000E+00
  0.00000000E+00  0.00000000E+00  0.00000000E+00
  0.00000000E+00  0.00000000E+00  0.00000000E+00
  0.00000000E+00  0.00000000E+00  0.00000000E+00
  0.00000000E+00  0.00000000E+00  0.00000000E+00
  0.00000000E+00  0.00000000E+00  0.00000000E+00
  0.00000000E+00  0.00000000E+00  0.00000000E+00
  0.00000000E+00  0.00000000E+00  0.00000000E+00
  0.00000000E+00  0.00000000E+00  0.00000000E+00
  0.00000000E+00  0.00000000E+00  0.00000000E+00
  0.00000000E+00  0.00000000E+00  0.00000000E+00
  0.00000000E+00  0.00000000E+00  0.00000000E+00
  0.00000000E+00  0.00000000E+00  0.00000000E+00
  0.00000000E+00  0.00000000E+00  0.00000000E+00
  0.00000000E+00  0.00000000E+00  0.00000000E+00
  0.00000000E+00  0.00000000E+00  0.00000000E+00
  0.00000000E+00  0.00000000E+00  0.00000000E+00
  0.00000000E+00  0.00000000E+00  0.00000000E+00
  0.00000000E+00  0.00000000E+00  0.00000000E+00
  0.00000000E+00  0.00000000E+00  0.00000000E+00
  0.00000000E+00  0.00000000E+00  0.00000000E+00
  0.00000000E+00  0.00000000E+00  0.00000000E+00
  0.00000000E+00  0.00000000E+00  0.00000000E+00
  0.00000000E+00  0.00000000E+00  0.00000000E+00
  0.00000000E+00  0.00000000E+00  0.00000000E+00
  0.00000000E+00  0.00000000E+00  0.00000000E+00
  0.00000000E+00  0.00000000E+00  0.00000000E+00
  0.00000000E+00  0.00000000E+00  0.00000000E+00
  0.00000000E+00  0.00000000E+00  0.00000000E+00
  0.00000000E+00  0.00000000E+00  0.00000000E+00
  0.00000000E+00  0.00000000E+00  0.00000000E+00
