Ti  O                                   
   1.0000000000000000     
    10.2549817459843666    0.0000000000000000    0.0000000000000000
     0.0000000000000001   11.3565798996950331    0.0000000000000000
     0.0000000000000000    0.0000000000000000   27.8995986556927171
   Ti   O 
    48    96
Selective dynamics
Direct
  0.8071402712309492  0.8333333333333357  0.2950857823383686   F   F   F
  0.5912064042131817  0.6666666666666643  0.3266110465940031   F   F   F
  0.3071402712309492  0.6666666666666643  0.2950857823383686   F   F   F
  0.0912064042131888  0.8333333333333357  0.3266110465940031   F   F   F
  0.9444349804975131  0.8333333153680549  0.4223976826408888   T   T   T
  0.7259398397470453  0.6666666579846745  0.4517413602420536   T   T   T
  0.4444349511087228  0.6666666651424138  0.4223976786416470   T   T   T
  0.2259398147590150  0.8333333425188414  0.4517413609920439   T   T   T
  0.0854096210191076  0.8333333145326719  0.5497352875946372   T   T   T
  0.8645015993764786  0.6666666631059398  0.5764808147170666   T   T   T
  0.5854096219098746  0.6666666499967009  0.5497352984993802   T   T   T
  0.3645016022904777  0.8333333080913693  0.5764808134627574   T   T   T
  0.2323000035300262  0.8333333024296070  0.6794894870773928   T   T   T
  0.0039586878494712  0.6666666502782219  0.7000590588175978   T   T   T
  0.7323000272940263  0.6666666552120627  0.6794894839015253   T   T   T
  0.5039586552904434  0.8333333178925306  0.7000590513310398   T   T   T
  0.8071402712309492  0.1666666666666643  0.2950857823383686   F   F   F
  0.5912064042131817  0.0000000000000000  0.3266110465940031   F   F   F
  0.3071402712309492  0.0000000000000000  0.2950857823383686   F   F   F
  0.0912064042131888  0.1666666666666643  0.3266110465940031   F   F   F
  0.9444349703822451  0.1666666629804135  0.4223976883078757   T   T   T
  0.7259398531440324 -0.0000000037378132  0.4517413606636224   T   T   T
  0.4444349377164251  0.0000000048264880  0.4223976814994003   T   T   T
  0.2259398156357424  0.1666666618022261  0.4517413588367760   T   T   T
  0.0854095878661326  0.1666666530830424  0.5497352907077276   T   T   T
  0.8645015884453310  0.0000000005454407  0.5764808104107156   T   T   T
  0.5854096340649083 -0.0000000208948431  0.5497352978450670   T   T   T
  0.3645016028605732  0.1666666599097309  0.5764808190567390   T   T   T
  0.2323000172931516  0.1666666674235022  0.6794894832860108   T   T   T
  0.0039586635150268 -0.0000000264434586  0.7000590684682761   T   T   T
  0.7322999978861046  0.0000000028160385  0.6794894943715432   T   T   T
  0.5039586789463161  0.1666666412707962  0.7000590498109956   T   T   T
  0.8071402712309492  0.5000000000000000  0.2950857823383686   F   F   F
  0.5912064042131817  0.3333333333333357  0.3266110465940031   F   F   F
  0.3071402712309492  0.3333333333333357  0.2950857823383686   F   F   F
  0.0912064042131888  0.5000000000000000  0.3266110465940031   F   F   F
  0.9444349592895102  0.4999999988901590  0.4223976838421109   T   T   T
  0.7259398508925197  0.3333333248940903  0.4517413605229859   T   T   T
  0.4444349544023137  0.3333333315006978  0.4223976764643453   T   T   T
  0.2259398226086358  0.5000000104542587  0.4517413665059009   T   T   T
  0.0854096357675562  0.4999999843936950  0.5497352876912320   T   T   T
  0.8645016077643572  0.3333333039024409  0.5764808153665648   T   T   T
  0.5854096199755784  0.3333333496170134  0.5497352975488529   T   T   T
  0.3645016050128371  0.4999999896939208  0.5764808100674650   T   T   T
  0.2322999998136285  0.4999999987896824  0.6794894903768226   T   T   T
  0.0039586715771825  0.3333333265591667  0.7000590611340082   T   T   T
  0.7323000213478958  0.3333332939119130  0.6794894986402267   T   T   T
  0.5039586583564191  0.4999999746984158  0.7000590586138984   T   T   T
  0.4870417169563837  0.6666666666666643  0.2688210713192376   F   F   F
  0.9870417169563837  0.8333333333333357  0.2688210713192376   F   F   F
  0.9113049584877544  0.8333333333333357  0.3528757576131341   F   F   F
  0.6272388255055219  0.8333333333333357  0.3213504933574995   F   F   F
  0.7711078499386161  0.6666666666666643  0.3003463355748721   F   F   F
  0.6233062488853207  0.6666666666666643  0.3949221283417756   F   F   F
  0.4113049584877544  0.6666666666666643  0.3528757576131341   F   F   F
  0.1272388255055219  0.6666666666666643  0.3213504933574995   F   F   F
  0.2711078499386161  0.8333333333333357  0.3003463355748721   F   F   F
  0.1233062488853207  0.8333333333333357  0.3949221283417756   F   F   F
  0.0491862932436538  0.8333333266273736  0.4796817444538514   T   T   T
  0.7638380797016043  0.8333333315787500  0.4475665158314657   T   T   T
  0.9080511545926251  0.6666666529047510  0.4266997696688022   T   T   T
  0.7629115979782306  0.6666666564264295  0.5206543542759721   T   T   T
  0.5491862767123126  0.6666666526751748  0.4796817456773166   T   T   T
  0.2638380929519344  0.6666666645020289  0.4475665104697779   T   T   T
  0.4080511707022851  0.8333333331094056  0.4266997689976665   T   T   T
  0.2629116020781482  0.8333333300622711  0.5206543573618188   T   T   T
  0.1931040288035167  0.8333333245571560  0.6064252560759913   T   T   T
  0.9037543299498064  0.8333333147206090  0.5733750981742745   T   T   T
  0.0495329184847544  0.6666666537295415  0.5531491945190836   T   T   T
  0.9124025168365690  0.6666666526318054  0.6455451431562116   T   T   T
  0.6931040491972794  0.6666666503205212  0.6064252557422276   T   T   T
  0.4037543235158185  0.6666666560326154  0.5733750902930956   T   T   T
  0.5495329172050418  0.8333333319349693  0.5531491907077911   T   T   T
  0.4124025200761623  0.8333333171210844  0.6455451503116095   T   T   T
  0.3470944948158171  0.8333333191805653  0.7309020466492594   T   T   T
  0.0536666672461228  0.8333333243262319  0.7075903048479255   T   T   T
  0.1950567451897175  0.6666666462565917  0.6800915369537049   T   T   T
  0.8470944782881660  0.6666666575308643  0.7309020489986850   T   T   T
  0.5536666674655949  0.6666666435510376  0.7075903030756476   T   T   T
  0.6950567622419468  0.8333333085626956  0.6800915437288748   T   T   T
  0.4870417169563837  0.0000000000000000  0.2688210713192376   F   F   F
  0.9870417169563837  0.1666666666666643  0.2688210713192376   F   F   F
  0.9113049584877544  0.1666666666666643  0.3528757576131341   F   F   F
  0.6272388255055219  0.1666666666666643  0.3213504933574995   F   F   F
  0.7711078499386161  0.0000000000000000  0.3003463355748721   F   F   F
  0.6233062488853207  0.0000000000000000  0.3949221283417756   F   F   F
  0.4113049584877544  0.0000000000000000  0.3528757576131341   F   F   F
  0.1272388255055219  0.0000000000000000  0.3213504933574995   F   F   F
  0.2711078499386161  0.1666666666666643  0.3003463355748721   F   F   F
  0.1233062488853207  0.1666666666666643  0.3949221283417756   F   F   F
  0.0491862828275342  0.1666666667977202  0.4796817456038229   T   T   T
  0.7638380940489399  0.1666666549939083  0.4475665111707772   T   T   T
  0.9080511515504439  0.0000000043519148  0.4266997728156277   T   T   T
  0.7629115907401407 -0.0000000048075991  0.5206543563275041   T   T   T
  0.5491862867655272 -0.0000000114149605  0.4796817467297771   T   T   T
  0.2638381020579046 -0.0000000056499147  0.4475665115813346   T   T   T
  0.4080511751554084  0.1666666685370172  0.4266997705238340   T   T   T
  0.2629116164248507  0.1666666616164441  0.5206543694074771   T   T   T
  0.1931040341597298  0.1666666564111910  0.6064252662558414   T   T   T
  0.9037543426792204  0.1666666641655083  0.5733750986393453   T   T   T
  0.0495329360411967 -0.0000000003166621  0.5531491937317357   T   T   T
  0.9124024995828273 -0.0000000046325983  0.6455451400484687   T   T   T
  0.6931040360602446 -0.0000000173391668  0.6064252545029681   T   T   T
  0.4037543364645126 -0.0000000032401806  0.5733750912713723   T   T   T
  0.5495329236787262  0.1666666510377459  0.5531491930211716   T   T   T
  0.4124025025693606  0.1666666495593121  0.6455451449582383   T   T   T
  0.3470944531106607  0.1666666510056233  0.7309020586299231   T   T   T
  0.0536666574991388  0.1666666560022115  0.7075903119534145   T   T   T
  0.1950567505859340 -0.0000000031354205  0.6800915446893542   T   T   T
  0.8470945045939450 -0.0000000310152584  0.7309020452521435   T   T   T
  0.5536666638155973 -0.0000000251654092  0.7075903025531650   T   T   T
  0.6950567630500110  0.1666666547212192  0.6800915517158889   T   T   T
  0.4870417169563837  0.3333333333333357  0.2688210713192376   F   F   F
  0.9870417169563837  0.5000000000000000  0.2688210713192376   F   F   F
  0.9113049584877544  0.5000000000000000  0.3528757576131341   F   F   F
  0.6272388255055219  0.5000000000000000  0.3213504933574995   F   F   F
  0.7711078499386161  0.3333333333333357  0.3003463355748721   F   F   F
  0.6233062488853207  0.3333333333333357  0.3949221283417756   F   F   F
  0.4113049584877544  0.3333333333333357  0.3528757576131341   F   F   F
  0.1272388255055219  0.3333333333333357  0.3213504933574995   F   F   F
  0.2711078499386161  0.5000000000000000  0.3003463355748721   F   F   F
  0.1233062488853207  0.5000000000000000  0.3949221283417756   F   F   F
  0.0491862905094286  0.4999999966424661  0.4796817454447159   T   T   T
  0.7638380847782762  0.4999999967043793  0.4475665141274802   T   T   T
  0.9080511576781497  0.3333333259723762  0.4266997708521727   T   T   T
  0.7629116021088969  0.3333333200039370  0.5206543652939019   T   T   T
  0.5491862800294688  0.3333333272014926  0.4796817437413467   T   T   T
  0.2638380953944119  0.3333333318150490  0.4475665092836486   T   T   T
  0.4080511708248922  0.4999999940839218  0.4266997708643596   T   T   T
  0.2629115974685974  0.4999999801745512  0.5206543597388602   T   T   T
  0.1931040196382094  0.4999999887020222  0.6064252552722723   T   T   T
  0.9037543296746402  0.4999999946790900  0.5733750977449943   T   T   T
  0.0495329294446091  0.3333333248718218  0.5531491963510520   T   T   T
  0.9124025063863613  0.3333333190184152  0.6455451452263095   T   T   T
  0.6931040373900106  0.3333333229342630  0.6064252595960615   T   T   T
  0.4037543378347247  0.3333333075110317  0.5733750927414136   T   T   T
  0.5495329328012192  0.4999999706825404  0.5531491926746791   T   T   T
  0.4124025090916282  0.4999999781394176  0.6455451417098431   T   T   T
  0.3470944951272730  0.5000000011086988  0.7309020472549748   T   T   T
  0.0536666614888917  0.4999999991805668  0.7075903090141683   T   T   T
  0.1950567522928666  0.3333332966569021  0.6800915463565030   T   T   T
  0.8470944873083770  0.3333333261302338  0.7309020556059080   T   T   T
  0.5536666648775200  0.3333333259346506  0.7075903044744433   T   T   T
  0.6950567520353945  0.4999999886997578  0.6800915482323010   T   T   T

  0.00000000E+00  0.00000000E+00  0.00000000E+00
  0.00000000E+00  0.00000000E+00  0.00000000E+00
  0.00000000E+00  0.00000000E+00  0.00000000E+00
  0.00000000E+00  0.00000000E+00  0.00000000E+00
  0.00000000E+00  0.00000000E+00  0.00000000E+00
  0.00000000E+00  0.00000000E+00  0.00000000E+00
  0.00000000E+00  0.00000000E+00  0.00000000E+00
  0.00000000E+00  0.00000000E+00  0.00000000E+00
  0.00000000E+00  0.00000000E+00  0.00000000E+00
  0.00000000E+00  0.00000000E+00  0.00000000E+00
  0.00000000E+00  0.00000000E+00  0.00000000E+00
  0.00000000E+00  0.00000000E+00  0.00000000E+00
  0.00000000E+00  0.00000000E+00  0.00000000E+00
  0.00000000E+00  0.00000000E+00  0.00000000E+00
  0.00000000E+00  0.00000000E+00  0.00000000E+00
  0.00000000E+00  0.00000000E+00  0.00000000E+00
  0.00000000E+00  0.00000000E+00  0.00000000E+00
  0.00000000E+00  0.00000000E+00  0.00000000E+00
  0.00000000E+00  0.00000000E+00  0.00000000E+00
  0.00000000E+00  0.00000000E+00  0.00000000E+00
  0.00000000E+00  0.00000000E+00  0.00000000E+00
  0.00000000E+00  0.00000000E+00  0.00000000E+00
  0.00000000E+00  0.00000000E+00  0.00000000E+00
  0.00000000E+00  0.00000000E+00  0.00000000E+00
  0.00000000E+00  0.00000000E+00  0.00000000E+00
  0.00000000E+00  0.00000000E+00  0.00000000E+00
  0.00000000E+00  0.00000000E+00  0.00000000E+00
  0.00000000E+00  0.00000000E+00  0.00000000E+00
  0.00000000E+00  0.00000000E+00  0.00000000E+00
  0.00000000E+00  0.00000000E+00  0.00000000E+00
  0.00000000E+00  0.00000000E+00  0.00000000E+00
  0.00000000E+00  0.00000000E+00  0.00000000E+00
  0.00000000E+00  0.00000000E+00  0.00000000E+00
  0.00000000E+00  0.00000000E+00  0.00000000E+00
  0.00000000E+00  0.00000000E+00  0.00000000E+00
  0.00000000E+00  0.00000000E+00  0.00000000E+00
  0.00000000E+00  0.00000000E+00  0.00000000E+00
  0.00000000E+00  0.00000000E+00  0.00000000E+00
  0.00000000E+00  0.00000000E+00  0.00000000E+00
  0.00000000E+00  0.00000000E+00  0.00000000E+00
  0.00000000E+00  0.00000000E+00  0.00000000E+00
  0.00000000E+00  0.00000000E+00  0.00000000E+00
  0.00000000E+00  0.00000000E+00  0.00000000E+00
  0.00000000E+00  0.00000000E+00  0.00000000E+00
  0.00000000E+00  0.00000000E+00  0.00000000E+00
  0.00000000E+00  0.00000000E+00  0.00000000E+00
  0.00000000E+00  0.00000000E+00  0.00000000E+00
  0.00000000E+00  0.00000000E+00  0.00000000E+00
  0.00000000E+00  0.00000000E+00  0.00000000E+00
  0.00000000E+00  0.00000000E+00  0.00000000E+00
  0.00000000E+00  0.00000000E+00  0.00000000E+00
  0.00000000E+00  0.00000000E+00  0.00000000E+00
  0.00000000E+00  0.00000000E+00  0.00000000E+00
  0.00000000E+00  0.00000000E+00  0.00000000E+00
  0.00000000E+00  0.00000000E+00  0.00000000E+00
  0.00000000E+00  0.00000000E+00  0.00000000E+00
  0.00000000E+00  0.00000000E+00  0.00000000E+00
  0.00000000E+00  0.00000000E+00  0.00000000E+00
  0.00000000E+00  0.00000000E+00  0.00000000E+00
  0.00000000E+00  0.00000000E+00  0.00000000E+00
  0.00000000E+00  0.00000000E+00  0.00000000E+00
  0.00000000E+00  0.00000000E+00  0.00000000E+00
  0.00000000E+00  0.00000000E+00  0.00000000E+00
  0.00000000E+00  0.00000000E+00  0.00000000E+00
  0.00000000E+00  0.00000000E+00  0.00000000E+00
  0.00000000E+00  0.00000000E+00  0.00000000E+00
  0.00000000E+00  0.00000000E+00  0.00000000E+00
  0.00000000E+00  0.00000000E+00  0.00000000E+00
  0.00000000E+00  0.00000000E+00  0.00000000E+00
  0.00000000E+00  0.00000000E+00  0.00000000E+00
  0.00000000E+00  0.00000000E+00  0.00000000E+00
  0.00000000E+00  0.00000000E+00  0.00000000E+00
  0.00000000E+00  0.00000000E+00  0.00000000E+00
  0.00000000E+00  0.00000000E+00  0.00000000E+00
  0.00000000E+00  0.00000000E+00  0.00000000E+00
  0.00000000E+00  0.00000000E+00  0.00000000E+00
  0.00000000E+00  0.00000000E+00  0.00000000E+00
  0.00000000E+00  0.00000000E+00  0.00000000E+00
  0.00000000E+00  0.00000000E+00  0.00000000E+00
  0.00000000E+00  0.00000000E+00  0.00000000E+00
  0.00000000E+00  0.00000000E+00  0.00000000E+00
  0.00000000E+00  0.00000000E+00  0.00000000E+00
  0.00000000E+00  0.00000000E+00  0.00000000E+00
  0.00000000E+00  0.00000000E+00  0.00000000E+00
  0.00000000E+00  0.00000000E+00  0.00000000E+00
  0.00000000E+00  0.00000000E+00  0.00000000E+00
  0.00000000E+00  0.00000000E+00  0.00000000E+00
  0.00000000E+00  0.00000000E+00  0.00000000E+00
  0.00000000E+00  0.00000000E+00  0.00000000E+00
  0.00000000E+00  0.00000000E+00  0.00000000E+00
  0.00000000E+00  0.00000000E+00  0.00000000E+00
  0.00000000E+00  0.00000000E+00  0.00000000E+00
  0.00000000E+00  0.00000000E+00  0.00000000E+00
  0.00000000E+00  0.00000000E+00  0.00000000E+00
  0.00000000E+00  0.00000000E+00  0.00000000E+00
  0.00000000E+00  0.00000000E+00  0.00000000E+00
  0.00000000E+00  0.00000000E+00  0.00000000E+00
  0.00000000E+00  0.00000000E+00  0.00000000E+00
  0.00000000E+00  0.00000000E+00  0.00000000E+00
  0.00000000E+00  0.00000000E+00  0.00000000E+00
  0.00000000E+00  0.00000000E+00  0.00000000E+00
  0.00000000E+00  0.00000000E+00  0.00000000E+00
  0.00000000E+00  0.00000000E+00  0.00000000E+00
  0.00000000E+00  0.00000000E+00  0.00000000E+00
  0.00000000E+00  0.00000000E+00  0.00000000E+00
  0.00000000E+00  0.00000000E+00  0.00000000E+00
  0.00000000E+00  0.00000000E+00  0.00000000E+00
  0.00000000E+00  0.00000000E+00  0.00000000E+00
  0.00000000E+00  0.00000000E+00  0.00000000E+00
  0.00000000E+00  0.00000000E+00  0.00000000E+00
  0.00000000E+00  0.00000000E+00  0.00000000E+00
  0.00000000E+00  0.00000000E+00  0.00000000E+00
  0.00000000E+00  0.00000000E+00  0.00000000E+00
  0.00000000E+00  0.00000000E+00  0.00000000E+00
  0.00000000E+00  0.00000000E+00  0.00000000E+00
  0.00000000E+00  0.00000000E+00  0.00000000E+00
  0.00000000E+00  0.00000000E+00  0.00000000E+00
  0.00000000E+00  0.00000000E+00  0.00000000E+00
  0.00000000E+00  0.00000000E+00  0.00000000E+00
  0.00000000E+00  0.00000000E+00  0.00000000E+00
  0.00000000E+00  0.00000000E+00  0.00000000E+00
  0.00000000E+00  0.00000000E+00  0.00000000E+00
  0.00000000E+00  0.00000000E+00  0.00000000E+00
  0.00000000E+00  0.00000000E+00  0.00000000E+00
  0.00000000E+00  0.00000000E+00  0.00000000E+00
  0.00000000E+00  0.00000000E+00  0.00000000E+00
  0.00000000E+00  0.00000000E+00  0.00000000E+00
  0.00000000E+00  0.00000000E+00  0.00000000E+00
  0.00000000E+00  0.00000000E+00  0.00000000E+00
  0.00000000E+00  0.00000000E+00  0.00000000E+00
  0.00000000E+00  0.00000000E+00  0.00000000E+00
  0.00000000E+00  0.00000000E+00  0.00000000E+00
  0.00000000E+00  0.00000000E+00  0.00000000E+00
  0.00000000E+00  0.00000000E+00  0.00000000E+00
  0.00000000E+00  0.00000000E+00  0.00000000E+00
  0.00000000E+00  0.00000000E+00  0.00000000E+00
  0.00000000E+00  0.00000000E+00  0.00000000E+00
  0.00000000E+00  0.00000000E+00  0.00000000E+00
  0.00000000E+00  0.00000000E+00  0.00000000E+00
  0.00000000E+00  0.00000000E+00  0.00000000E+00
  0.00000000E+00  0.00000000E+00  0.00000000E+00
  0.00000000E+00  0.00000000E+00  0.00000000E+00
  0.00000000E+00  0.00000000E+00  0.00000000E+00
  0.00000000E+00  0.00000000E+00  0.00000000E+00
