Ti  O                                   
   1.0000000000000000     
    10.2737559326187338    0.0000000000000000    0.0000000000000000
     0.0000000000000001   11.3688104177845837    0.0000000000000000
     0.0000000000000000    0.0000000000000000   27.9186729867166505
   Ti   O 
    48    96
Selective dynamics
Direct
  0.8078064414881041  0.8333333333333357  0.2949809269087638   F   F   F
  0.5918213306044038  0.6666666666666643  0.3265223227689518   F   F   F
  0.3078064414881041  0.6666666666666643  0.2949809269087638   F   F   F
  0.0918213306044038  0.8333333333333357  0.3265223227689518   F   F   F
  0.9444110513610857  0.8333333422378949  0.4226232703676155   T   T   T
  0.7254781452947285  0.6666666601778413  0.4515066957714964   T   T   T
  0.4444110375636917  0.6666666704771289  0.4226232163769151   T   T   T
  0.2254778350222554  0.8333333318281093  0.4515065432687494   T   T   T
  0.0851603546468466  0.8333333498051728  0.5501449112376379   T   T   T
  0.8635769508364527  0.6666666866205442  0.5763242895456396   T   T   T
  0.5851618026261332  0.6666666632753766  0.5501450368320567   T   T   T
  0.3635771011283472  0.8333333243939527  0.5763240949798281   T   T   T
  0.2321546012884021  0.8333333185288387  0.6801015338931065   T   T   T
  0.0033758524603741  0.6666666766411380  0.7004306651556229   T   T   T
  0.7321546791282095  0.6666666608045100  0.6801015311992555   T   T   T
  0.5033798247174958  0.8333333332144566  0.7004312818328775   T   T   T
  0.8078064414881041  0.1666666666666643  0.2949809269087638   F   F   F
  0.5918213306044038  0.0000000000000000  0.3265223227689518   F   F   F
  0.3078064414881041  0.0000000000000000  0.2949809269087638   F   F   F
  0.0918213306044038  0.1666666666666643  0.3265223227689518   F   F   F
  0.9444110324131973  0.1666666651505100  0.4226232689750209   T   T   T
  0.7254781364312065  0.0000000167874871  0.4515066919203082   T   T   T
  0.4444110392200845 -0.0000000021337206  0.4226232175762695   T   T   T
  0.2254778607379738  0.1666666469251839  0.4515065515126948   T   T   T
  0.0851603638763517  0.1666666540910770  0.5501449235317377   T   T   T
  0.8635769582694021  0.0000000071190553  0.5763242864674920   T   T   T
  0.5851618056151136 -0.0000000160055300  0.5501450341343017   T   T   T
  0.3635770939635221  0.1666666633265937  0.5763241027806404   T   T   T
  0.2321545883270286  0.1666666733378357  0.6801015406558371   T   T   T
  0.0033758589198788 -0.0000000158435659  0.7004306719478740   T   T   T
  0.7321546645562876  0.0000000181816434  0.6801015351931042   T   T   T
  0.5033798370614355  0.1666666724518947  0.7004312908453115   T   T   T
  0.8078064414881041  0.5000000000000000  0.2949809269087638   F   F   F
  0.5918213306044038  0.3333333333333357  0.3265223227689518   F   F   F
  0.3078064414881041  0.3333333333333357  0.2949809269087638   F   F   F
  0.0918213306044038  0.5000000000000000  0.3265223227689518   F   F   F
  0.9444110299268462  0.5000000096324866  0.4226232701625725   T   T   T
  0.7254781358706572  0.3333333369571185  0.4515066846564442   T   T   T
  0.4444110545956229  0.3333333212353873  0.4226232181712358   T   T   T
  0.2254778337676026  0.5000000079161069  0.4515065609686904   T   T   T
  0.0851603951985334  0.5000000080621048  0.5501449155429632   T   T   T
  0.8635769620602961  0.3333333210434473  0.5763242796688053   T   T   T
  0.5851617920203847  0.3333333292651605  0.5501450168248387   T   T   T
  0.3635770770656053  0.4999999986695483  0.5763240957085076   T   T   T
  0.2321545839710701  0.5000000000965275  0.6801015429147046   T   T   T
  0.0033758184496660  0.3333333419825207  0.7004306457592432   T   T   T
  0.7321546878701182  0.3333333303528441  0.6801015139899008   T   T   T
  0.5033798237677226  0.4999999938259250  0.7004312902961497   T   T   T
  0.4881981863450164  0.6666666666666643  0.2686374099359412   F   F   F
  0.9881981863450164  0.8333333333333357  0.2686374099359412   F   F   F
  0.9114295857474914  0.8333333333333357  0.3528658397417814   F   F   F
  0.6274146966311918  0.8333333333333357  0.3213244438815863   F   F   F
  0.7722130754613161  0.6666666666666643  0.3001788057961292   F   F   F
  0.6242577428102152  0.6666666666666643  0.3948029933767003   F   F   F
  0.4114295857474914  0.6666666666666643  0.3528658397417814   F   F   F
  0.1274146966311918  0.6666666666666643  0.3213244438815863   F   F   F
  0.2722130754613161  0.8333333333333357  0.3001788057961292   F   F   F
  0.1242577428102152  0.8333333333333357  0.3948029933767003   F   F   F
  0.0489621305326122  0.8333333318208730  0.4797077280004183   T   T   T
  0.7635842225843946  0.8333333373505960  0.4476978283179170   T   T   T
  0.9085541619099925  0.6666666616753782  0.4265857072401659   T   T   T
  0.7635380459853635  0.6666666728163785  0.5206831246053434   T   T   T
  0.5489620496877682  0.6666666586470592  0.4797077469063644   T   T   T
  0.2635842809147152  0.6666666584864319  0.4476978370130346   T   T   T
  0.4085542011746975  0.8333333212562516  0.4265857196161782   T   T   T
  0.2635385845311153  0.8333333326414833  0.5206833500195784   T   T   T
  0.1927712486338899  0.8333333326031278  0.6065097034124469   T   T   T
  0.9034132831036474  0.8333333327200642  0.5737397512033529   T   T   T
  0.0498055268501186  0.6666666702578034  0.5530312690015320   T   T   T
  0.9134699835196354  0.6666666701381837  0.6459207718413348   T   T   T
  0.6927706538428531  0.6666666651595063  0.6065094236669754   T   T   T
  0.4034128286587795  0.6666666737654036  0.5737398092641262   T   T   T
  0.5498051096348396  0.8333333364774209  0.5530312908925222   T   T   T
  0.4134683271686868  0.8333333321473015  0.6459197952591865   T   T   T
  0.3465966013049428  0.8333333473991603  0.7317078992141625   T   T   T
  0.0537574189389328  0.8333333359737156  0.7085011542676050   T   T   T
  0.1958116455030167  0.6666666771106871  0.6798716261848247   T   T   T
  0.8465984407440020  0.6666666676690274  0.7317077342472464   T   T   T
  0.5537568238556536  0.6666666622323355  0.7085010925441848   T   T   T
  0.6958114293629487  0.8333333375582497  0.6798716355100016   T   T   T
  0.4881981863450164  0.0000000000000000  0.2686374099359412   F   F   F
  0.9881981863450164  0.1666666666666643  0.2686374099359412   F   F   F
  0.9114295857474914  0.1666666666666643  0.3528658397417814   F   F   F
  0.6274146966311918  0.1666666666666643  0.3213244438815863   F   F   F
  0.7722130754613161  0.0000000000000000  0.3001788057961292   F   F   F
  0.6242577428102152  0.0000000000000000  0.3948029933767003   F   F   F
  0.4114295857474914  0.0000000000000000  0.3528658397417814   F   F   F
  0.1274146966311918  0.0000000000000000  0.3213244438815863   F   F   F
  0.2722130754613161  0.1666666666666643  0.3001788057961292   F   F   F
  0.1242577428102152  0.1666666666666643  0.3948029933767003   F   F   F
  0.0489621399157892  0.1666666734264966  0.4797077262015696   T   T   T
  0.7635842436241476  0.1666666502116229  0.4476978301032463   T   T   T
  0.9085541636967160  0.0000000166016743  0.4265857083764394   T   T   T
  0.7635380372923670 -0.0000000089906304  0.5206831196914656   T   T   T
  0.5489620643414123  0.0000000006335934  0.4797077526087787   T   T   T
  0.2635842737438401  0.0000000114199856  0.4476978373503309   T   T   T
  0.4085541906108171  0.1666666776494639  0.4265857220361056   T   T   T
  0.2635385910371699  0.1666666623536501  0.5206833485755005   T   T   T
  0.1927712386827271  0.1666666609091161  0.6065097051848649   T   T   T
  0.9034132770006653  0.1666666701608447  0.5737397437732950   T   T   T
  0.0498055331265714  0.0000000011771652  0.5530312673192745   T   T   T
  0.9134699799599372 -0.0000000084731106  0.6459207632618433   T   T   T
  0.6927706558912567  0.0000000076848809  0.6065094242034992   T   T   T
  0.4034128373888277 -0.0000000057908309  0.5737398142290422   T   T   T
  0.5498051143081933  0.1666666600476513  0.5530312887286973   T   T   T
  0.4134683024256720  0.1666666600881114  0.6459197944000178   T   T   T
  0.3465965788077324  0.1666666568357194  0.7317079139250082   T   T   T
  0.0537574010261807  0.1666666634311080  0.7085011449282245   T   T   T
  0.1958116322748391 -0.0000000036295197  0.6798716248775954   T   T   T
  0.8465984542705061  0.0000000067562644  0.7317077296091593   T   T   T
  0.5537568297481660 -0.0000000011820482  0.7085010946441110   T   T   T
  0.6958114035901245  0.1666666761452578  0.6798716310693556   T   T   T
  0.4881981863450164  0.3333333333333357  0.2686374099359412   F   F   F
  0.9881981863450164  0.5000000000000000  0.2686374099359412   F   F   F
  0.9114295857474914  0.5000000000000000  0.3528658397417814   F   F   F
  0.6274146966311918  0.5000000000000000  0.3213244438815863   F   F   F
  0.7722130754613161  0.3333333333333357  0.3001788057961292   F   F   F
  0.6242577428102152  0.3333333333333357  0.3948029933767003   F   F   F
  0.4114295857474914  0.3333333333333357  0.3528658397417814   F   F   F
  0.1274146966311918  0.3333333333333357  0.3213244438815863   F   F   F
  0.2722130754613161  0.5000000000000000  0.3001788057961292   F   F   F
  0.1242577428102152  0.5000000000000000  0.3948029933767003   F   F   F
  0.0489621319412351  0.5000000022679868  0.4797077252981795   T   T   T
  0.7635842406784286  0.5000000200779057  0.4476978285468788   T   T   T
  0.9085541728573426  0.3333333337216597  0.4265857039175940   T   T   T
  0.7635380424193093  0.3333333370123280  0.5206831221506861   T   T   T
  0.5489620404802157  0.3333333370277031  0.4797077468057513   T   T   T
  0.2635842725991323  0.3333333310410706  0.4476978390605540   T   T   T
  0.4085541991927342  0.5000000011931254  0.4265857216120117   T   T   T
  0.2635385862918151  0.4999999948202390  0.5206833498325281   T   T   T
  0.1927712351297200  0.5000000078097584  0.6065097065394239   T   T   T
  0.9034132610234863  0.5000000022556393  0.5737397413550266   T   T   T
  0.0498055132882780  0.3333333334775825  0.5530312647190043   T   T   T
  0.9134699856352889  0.3333333333443845  0.6459207697018408   T   T   T
  0.6927706628535950  0.3333333350968145  0.6065094194065583   T   T   T
  0.4034128298804545  0.3333333232398014  0.5737398092671814   T   T   T
  0.5498051189736307  0.4999999957590044  0.5530312905972181   T   T   T
  0.4134683001593059  0.5000000074096120  0.6459197928915972   T   T   T
  0.3465965760397717  0.5000000149925794  0.7317079109922869   T   T   T
  0.0537574015388158  0.5000000032371155  0.7085011449514508   T   T   T
  0.1958116620909795  0.3333333332326489  0.6798716277369116   T   T   T
  0.8465984046226162  0.3333333249388783  0.7317077172211136   T   T   T
  0.5537568210717849  0.3333333306260877  0.7085010819207327   T   T   T
  0.6958114102001142  0.4999999877056229  0.6798716300412055   T   T   T

  0.00000000E+00  0.00000000E+00  0.00000000E+00
  0.00000000E+00  0.00000000E+00  0.00000000E+00
  0.00000000E+00  0.00000000E+00  0.00000000E+00
  0.00000000E+00  0.00000000E+00  0.00000000E+00
  0.00000000E+00  0.00000000E+00  0.00000000E+00
  0.00000000E+00  0.00000000E+00  0.00000000E+00
  0.00000000E+00  0.00000000E+00  0.00000000E+00
  0.00000000E+00  0.00000000E+00  0.00000000E+00
  0.00000000E+00  0.00000000E+00  0.00000000E+00
  0.00000000E+00  0.00000000E+00  0.00000000E+00
  0.00000000E+00  0.00000000E+00  0.00000000E+00
  0.00000000E+00  0.00000000E+00  0.00000000E+00
  0.00000000E+00  0.00000000E+00  0.00000000E+00
  0.00000000E+00  0.00000000E+00  0.00000000E+00
  0.00000000E+00  0.00000000E+00  0.00000000E+00
  0.00000000E+00  0.00000000E+00  0.00000000E+00
  0.00000000E+00  0.00000000E+00  0.00000000E+00
  0.00000000E+00  0.00000000E+00  0.00000000E+00
  0.00000000E+00  0.00000000E+00  0.00000000E+00
  0.00000000E+00  0.00000000E+00  0.00000000E+00
  0.00000000E+00  0.00000000E+00  0.00000000E+00
  0.00000000E+00  0.00000000E+00  0.00000000E+00
  0.00000000E+00  0.00000000E+00  0.00000000E+00
  0.00000000E+00  0.00000000E+00  0.00000000E+00
  0.00000000E+00  0.00000000E+00  0.00000000E+00
  0.00000000E+00  0.00000000E+00  0.00000000E+00
  0.00000000E+00  0.00000000E+00  0.00000000E+00
  0.00000000E+00  0.00000000E+00  0.00000000E+00
  0.00000000E+00  0.00000000E+00  0.00000000E+00
  0.00000000E+00  0.00000000E+00  0.00000000E+00
  0.00000000E+00  0.00000000E+00  0.00000000E+00
  0.00000000E+00  0.00000000E+00  0.00000000E+00
  0.00000000E+00  0.00000000E+00  0.00000000E+00
  0.00000000E+00  0.00000000E+00  0.00000000E+00
  0.00000000E+00  0.00000000E+00  0.00000000E+00
  0.00000000E+00  0.00000000E+00  0.00000000E+00
  0.00000000E+00  0.00000000E+00  0.00000000E+00
  0.00000000E+00  0.00000000E+00  0.00000000E+00
  0.00000000E+00  0.00000000E+00  0.00000000E+00
  0.00000000E+00  0.00000000E+00  0.00000000E+00
  0.00000000E+00  0.00000000E+00  0.00000000E+00
  0.00000000E+00  0.00000000E+00  0.00000000E+00
  0.00000000E+00  0.00000000E+00  0.00000000E+00
  0.00000000E+00  0.00000000E+00  0.00000000E+00
  0.00000000E+00  0.00000000E+00  0.00000000E+00
  0.00000000E+00  0.00000000E+00  0.00000000E+00
  0.00000000E+00  0.00000000E+00  0.00000000E+00
  0.00000000E+00  0.00000000E+00  0.00000000E+00
  0.00000000E+00  0.00000000E+00  0.00000000E+00
  0.00000000E+00  0.00000000E+00  0.00000000E+00
  0.00000000E+00  0.00000000E+00  0.00000000E+00
  0.00000000E+00  0.00000000E+00  0.00000000E+00
  0.00000000E+00  0.00000000E+00  0.00000000E+00
  0.00000000E+00  0.00000000E+00  0.00000000E+00
  0.00000000E+00  0.00000000E+00  0.00000000E+00
  0.00000000E+00  0.00000000E+00  0.00000000E+00
  0.00000000E+00  0.00000000E+00  0.00000000E+00
  0.00000000E+00  0.00000000E+00  0.00000000E+00
  0.00000000E+00  0.00000000E+00  0.00000000E+00
  0.00000000E+00  0.00000000E+00  0.00000000E+00
  0.00000000E+00  0.00000000E+00  0.00000000E+00
  0.00000000E+00  0.00000000E+00  0.00000000E+00
  0.00000000E+00  0.00000000E+00  0.00000000E+00
  0.00000000E+00  0.00000000E+00  0.00000000E+00
  0.00000000E+00  0.00000000E+00  0.00000000E+00
  0.00000000E+00  0.00000000E+00  0.00000000E+00
  0.00000000E+00  0.00000000E+00  0.00000000E+00
  0.00000000E+00  0.00000000E+00  0.00000000E+00
  0.00000000E+00  0.00000000E+00  0.00000000E+00
  0.00000000E+00  0.00000000E+00  0.00000000E+00
  0.00000000E+00  0.00000000E+00  0.00000000E+00
  0.00000000E+00  0.00000000E+00  0.00000000E+00
  0.00000000E+00  0.00000000E+00  0.00000000E+00
  0.00000000E+00  0.00000000E+00  0.00000000E+00
  0.00000000E+00  0.00000000E+00  0.00000000E+00
  0.00000000E+00  0.00000000E+00  0.00000000E+00
  0.00000000E+00  0.00000000E+00  0.00000000E+00
  0.00000000E+00  0.00000000E+00  0.00000000E+00
  0.00000000E+00  0.00000000E+00  0.00000000E+00
  0.00000000E+00  0.00000000E+00  0.00000000E+00
  0.00000000E+00  0.00000000E+00  0.00000000E+00
  0.00000000E+00  0.00000000E+00  0.00000000E+00
  0.00000000E+00  0.00000000E+00  0.00000000E+00
  0.00000000E+00  0.00000000E+00  0.00000000E+00
  0.00000000E+00  0.00000000E+00  0.00000000E+00
  0.00000000E+00  0.00000000E+00  0.00000000E+00
  0.00000000E+00  0.00000000E+00  0.00000000E+00
  0.00000000E+00  0.00000000E+00  0.00000000E+00
  0.00000000E+00  0.00000000E+00  0.00000000E+00
  0.00000000E+00  0.00000000E+00  0.00000000E+00
  0.00000000E+00  0.00000000E+00  0.00000000E+00
  0.00000000E+00  0.00000000E+00  0.00000000E+00
  0.00000000E+00  0.00000000E+00  0.00000000E+00
  0.00000000E+00  0.00000000E+00  0.00000000E+00
  0.00000000E+00  0.00000000E+00  0.00000000E+00
  0.00000000E+00  0.00000000E+00  0.00000000E+00
  0.00000000E+00  0.00000000E+00  0.00000000E+00
  0.00000000E+00  0.00000000E+00  0.00000000E+00
  0.00000000E+00  0.00000000E+00  0.00000000E+00
  0.00000000E+00  0.00000000E+00  0.00000000E+00
  0.00000000E+00  0.00000000E+00  0.00000000E+00
  0.00000000E+00  0.00000000E+00  0.00000000E+00
  0.00000000E+00  0.00000000E+00  0.00000000E+00
  0.00000000E+00  0.00000000E+00  0.00000000E+00
  0.00000000E+00  0.00000000E+00  0.00000000E+00
  0.00000000E+00  0.00000000E+00  0.00000000E+00
  0.00000000E+00  0.00000000E+00  0.00000000E+00
  0.00000000E+00  0.00000000E+00  0.00000000E+00
  0.00000000E+00  0.00000000E+00  0.00000000E+00
  0.00000000E+00  0.00000000E+00  0.00000000E+00
  0.00000000E+00  0.00000000E+00  0.00000000E+00
  0.00000000E+00  0.00000000E+00  0.00000000E+00
  0.00000000E+00  0.00000000E+00  0.00000000E+00
  0.00000000E+00  0.00000000E+00  0.00000000E+00
  0.00000000E+00  0.00000000E+00  0.00000000E+00
  0.00000000E+00  0.00000000E+00  0.00000000E+00
  0.00000000E+00  0.00000000E+00  0.00000000E+00
  0.00000000E+00  0.00000000E+00  0.00000000E+00
  0.00000000E+00  0.00000000E+00  0.00000000E+00
  0.00000000E+00  0.00000000E+00  0.00000000E+00
  0.00000000E+00  0.00000000E+00  0.00000000E+00
  0.00000000E+00  0.00000000E+00  0.00000000E+00
  0.00000000E+00  0.00000000E+00  0.00000000E+00
  0.00000000E+00  0.00000000E+00  0.00000000E+00
  0.00000000E+00  0.00000000E+00  0.00000000E+00
  0.00000000E+00  0.00000000E+00  0.00000000E+00
  0.00000000E+00  0.00000000E+00  0.00000000E+00
  0.00000000E+00  0.00000000E+00  0.00000000E+00
  0.00000000E+00  0.00000000E+00  0.00000000E+00
  0.00000000E+00  0.00000000E+00  0.00000000E+00
  0.00000000E+00  0.00000000E+00  0.00000000E+00
  0.00000000E+00  0.00000000E+00  0.00000000E+00
  0.00000000E+00  0.00000000E+00  0.00000000E+00
  0.00000000E+00  0.00000000E+00  0.00000000E+00
  0.00000000E+00  0.00000000E+00  0.00000000E+00
  0.00000000E+00  0.00000000E+00  0.00000000E+00
  0.00000000E+00  0.00000000E+00  0.00000000E+00
  0.00000000E+00  0.00000000E+00  0.00000000E+00
  0.00000000E+00  0.00000000E+00  0.00000000E+00
  0.00000000E+00  0.00000000E+00  0.00000000E+00
  0.00000000E+00  0.00000000E+00  0.00000000E+00
  0.00000000E+00  0.00000000E+00  0.00000000E+00
  0.00000000E+00  0.00000000E+00  0.00000000E+00
  0.00000000E+00  0.00000000E+00  0.00000000E+00
