Mg  O                                   
   1.00000000000000     
     8.4671426306338464    0.0000000000000000    0.0000000000000000
     0.0000000000000000    8.4671426306338464    0.0000000000000000
     0.0000000000000000    0.0000000000000000   21.3503569729753835
   Mg   O 
    32    32
Selective dynamics
Direct
  0.2500000000000000  0.0000000000000000  0.3512821827519446   F   F   F
  0.5000000000000000  0.2500000000000000  0.3512821827519446   F   F   F
  0.2500000000000000  0.2500000000000000  0.4504273942506458   F   F   F
  0.5000000000000000  0.0000000000000000  0.4504273942506458   F   F   F
  0.2500000000000000  0.0000000000000000  0.5501911160520336   T   T   T
  0.5000000000000000  0.2500000000000000  0.5501911160520336   T   T   T
  0.2500000000000000  0.2500000000000000  0.6485320864637103   T   T   T
  0.5000000000000000  0.0000000000000000  0.6485320864637103   T   T   T
  0.2500000000000000  0.5000000000000000  0.3512821827519446   F   F   F
  0.5000000000000000  0.7500000000000000  0.3512821827519446   F   F   F
  0.2500000000000000  0.7500000000000000  0.4504273942506458   F   F   F
  0.5000000000000000  0.5000000000000000  0.4504273942506458   F   F   F
  0.2500000000000000  0.5000000000000000  0.5501911160520336   T   T   T
  0.5000000000000000  0.7500000000000000  0.5501911160520336   T   T   T
  0.2500000000000000  0.7500000000000000  0.6485320864637103   T   T   T
  0.5000000000000000  0.5000000000000000  0.6485320864637103   T   T   T
  0.7500000000000000  0.0000000000000000  0.3512821827519446   F   F   F
  0.0000000000000000  0.2500000000000000  0.3512821827519446   F   F   F
  0.7500000000000000  0.2500000000000000  0.4504273942506458   F   F   F
  0.0000000000000000  0.0000000000000000  0.4504273942506458   F   F   F
  0.7500000000000000  0.0000000000000000  0.5501911160520336   T   T   T
  0.0000000000000000  0.2500000000000000  0.5501911160520336   T   T   T
  0.7500000000000000  0.2500000000000000  0.6485320864637103   T   T   T
  0.0000000000000000  0.0000000000000000  0.6485320864637103   T   T   T
  0.7500000000000000  0.5000000000000000  0.3512821827519446   F   F   F
  0.0000000000000000  0.7500000000000000  0.3512821827519446   F   F   F
  0.7500000000000000  0.7500000000000000  0.4504273942506458   F   F   F
  0.0000000000000000  0.5000000000000000  0.4504273942506458   F   F   F
  0.7500000000000000  0.5000000000000000  0.5501911160520336   T   T   T
  0.0000000000000000  0.7500000000000000  0.5501911160520336   T   T   T
  0.7500000000000000  0.7500000000000000  0.6485320864637103   T   T   T
  0.0000000000000000  0.5000000000000000  0.6485320864637103   T   T   T
  0.2500000000000000  0.0000000000000000  0.4504273942506458   F   F   F
  0.5000000000000000  0.2500000000000000  0.4504273942506458   F   F   F
  0.2500000000000000  0.2500000000000000  0.3512821827519446   F   F   F
  0.5000000000000000  0.0000000000000000  0.3512821827519446   F   F   F
  0.2500000000000000  0.0000000000000000  0.6507855621650123   T   T   T
  0.5000000000000000  0.2500000000000000  0.6507855621650123   T   T   T
  0.2500000000000000  0.2500000000000000  0.5498145929908560   T   T   T
  0.5000000000000000  0.0000000000000000  0.5498145929908560   T   T   T
  0.2500000000000000  0.5000000000000000  0.4504273942506458   F   F   F
  0.5000000000000000  0.7500000000000000  0.4504273942506458   F   F   F
  0.2500000000000000  0.7500000000000000  0.3512821827519446   F   F   F
  0.5000000000000000  0.5000000000000000  0.3512821827519446   F   F   F
  0.2500000000000000  0.5000000000000000  0.6507855621650123   T   T   T
  0.5000000000000000  0.7500000000000000  0.6507855621650123   T   T   T
  0.2500000000000000  0.7500000000000000  0.5498145929908560   T   T   T
  0.5000000000000000  0.5000000000000000  0.5498145929908560   T   T   T
  0.7500000000000000  0.0000000000000000  0.4504273942506458   F   F   F
  0.0000000000000000  0.2500000000000000  0.4504273942506458   F   F   F
  0.7500000000000000  0.2500000000000000  0.3512821827519446   F   F   F
  0.0000000000000000  0.0000000000000000  0.3512821827519446   F   F   F
  0.7500000000000000  0.0000000000000000  0.6507855621650123   T   T   T
  0.0000000000000000  0.2500000000000000  0.6507855621650123   T   T   T
  0.7500000000000000  0.2500000000000000  0.5498145929908560   T   T   T
  0.0000000000000000  0.0000000000000000  0.5498145929908560   T   T   T
  0.7500000000000000  0.5000000000000000  0.4504273942506458   F   F   F
  0.0000000000000000  0.7500000000000000  0.4504273942506458   F   F   F
  0.7500000000000000  0.7500000000000000  0.3512821827519446   F   F   F
  0.0000000000000000  0.5000000000000000  0.3512821827519446   F   F   F
  0.7500000000000000  0.5000000000000000  0.6507855621650123   T   T   T
  0.0000000000000000  0.7500000000000000  0.6507855621650123   T   T   T
  0.7500000000000000  0.7500000000000000  0.5498145929908560   T   T   T
  0.0000000000000000  0.5000000000000000  0.5498145929908560   T   T   T
 
  0.00000000E+00  0.00000000E+00  0.00000000E+00
  0.00000000E+00  0.00000000E+00  0.00000000E+00
  0.00000000E+00  0.00000000E+00  0.00000000E+00
  0.00000000E+00  0.00000000E+00  0.00000000E+00
  0.00000000E+00  0.00000000E+00  0.00000000E+00
  0.00000000E+00  0.00000000E+00  0.00000000E+00
  0.00000000E+00  0.00000000E+00  0.00000000E+00
  0.00000000E+00  0.00000000E+00  0.00000000E+00
  0.00000000E+00  0.00000000E+00  0.00000000E+00
  0.00000000E+00  0.00000000E+00  0.00000000E+00
  0.00000000E+00  0.00000000E+00  0.00000000E+00
  0.00000000E+00  0.00000000E+00  0.00000000E+00
  0.00000000E+00  0.00000000E+00  0.00000000E+00
  0.00000000E+00  0.00000000E+00  0.00000000E+00
  0.00000000E+00  0.00000000E+00  0.00000000E+00
  0.00000000E+00  0.00000000E+00  0.00000000E+00
  0.00000000E+00  0.00000000E+00  0.00000000E+00
  0.00000000E+00  0.00000000E+00  0.00000000E+00
  0.00000000E+00  0.00000000E+00  0.00000000E+00
  0.00000000E+00  0.00000000E+00  0.00000000E+00
  0.00000000E+00  0.00000000E+00  0.00000000E+00
  0.00000000E+00  0.00000000E+00  0.00000000E+00
  0.00000000E+00  0.00000000E+00  0.00000000E+00
  0.00000000E+00  0.00000000E+00  0.00000000E+00
  0.00000000E+00  0.00000000E+00  0.00000000E+00
  0.00000000E+00  0.00000000E+00  0.00000000E+00
  0.00000000E+00  0.00000000E+00  0.00000000E+00
  0.00000000E+00  0.00000000E+00  0.00000000E+00
  0.00000000E+00  0.00000000E+00  0.00000000E+00
  0.00000000E+00  0.00000000E+00  0.00000000E+00
  0.00000000E+00  0.00000000E+00  0.00000000E+00
  0.00000000E+00  0.00000000E+00  0.00000000E+00
  0.00000000E+00  0.00000000E+00  0.00000000E+00
  0.00000000E+00  0.00000000E+00  0.00000000E+00
  0.00000000E+00  0.00000000E+00  0.00000000E+00
  0.00000000E+00  0.00000000E+00  0.00000000E+00
  0.00000000E+00  0.00000000E+00  0.00000000E+00
  0.00000000E+00  0.00000000E+00  0.00000000E+00
  0.00000000E+00  0.00000000E+00  0.00000000E+00
  0.00000000E+00  0.00000000E+00  0.00000000E+00
  0.00000000E+00  0.00000000E+00  0.00000000E+00
  0.00000000E+00  0.00000000E+00  0.00000000E+00
  0.00000000E+00  0.00000000E+00  0.00000000E+00
  0.00000000E+00  0.00000000E+00  0.00000000E+00
  0.00000000E+00  0.00000000E+00  0.00000000E+00
  0.00000000E+00  0.00000000E+00  0.00000000E+00
  0.00000000E+00  0.00000000E+00  0.00000000E+00
  0.00000000E+00  0.00000000E+00  0.00000000E+00
  0.00000000E+00  0.00000000E+00  0.00000000E+00
  0.00000000E+00  0.00000000E+00  0.00000000E+00
  0.00000000E+00  0.00000000E+00  0.00000000E+00
  0.00000000E+00  0.00000000E+00  0.00000000E+00
  0.00000000E+00  0.00000000E+00  0.00000000E+00
  0.00000000E+00  0.00000000E+00  0.00000000E+00
  0.00000000E+00  0.00000000E+00  0.00000000E+00
  0.00000000E+00  0.00000000E+00  0.00000000E+00
  0.00000000E+00  0.00000000E+00  0.00000000E+00
  0.00000000E+00  0.00000000E+00  0.00000000E+00
  0.00000000E+00  0.00000000E+00  0.00000000E+00
  0.00000000E+00  0.00000000E+00  0.00000000E+00
  0.00000000E+00  0.00000000E+00  0.00000000E+00
  0.00000000E+00  0.00000000E+00  0.00000000E+00
  0.00000000E+00  0.00000000E+00  0.00000000E+00
  0.00000000E+00  0.00000000E+00  0.00000000E+00
