Ti  O                                   
   1.0000000000000000     
    13.0611277035783679    0.0000000000000000    0.0000000000000000
     0.0000000000000000   11.8452989478852526    0.0000000000000000
     0.0000000000000000    0.0000000000000000   30.6189756207606258
   Ti   O 
    80   160
Selective dynamics
Direct
  0.7500000000000000  0.6250000000000000  0.2867151425091663   F   F   F
  0.0000000000000000  0.7500000000000000  0.2867151425091663   F   F   F
  0.0000000000000000  0.6250000000000000  0.3933575712545831   F   F   F
  0.7500000000000000  0.7500000000000000  0.3933575712545831   F   F   F
  0.7500000000000000  0.6250000000000000  0.5000000000000000   F   F   F
  0.0000000000000000  0.7500000000000000  0.5000000000000000   F   F   F
 -0.0000000021029114  0.6249999883640256  0.6044413812974394   T   T   T
  0.7500000022521346  0.7499999992684432  0.6107188008798612   T   T   T
  0.7499999620796330  0.6250000312497838  0.7203843674986322   T   T   T
  0.0000000289135420  0.7499999953869627  0.7085023898626756   T   T   T
  0.7500000000000000  0.8750000000000000  0.2867151425091663   F   F   F
  0.0000000000000000  0.0000000000000000  0.2867151425091663   F   F   F
  0.0000000000000000  0.8750000000000000  0.3933575712545831   F   F   F
  0.7500000000000000  0.0000000000000000  0.3933575712545831   F   F   F
  0.7500000000000000  0.8750000000000000  0.5000000000000000   F   F   F
  0.0000000000000000  0.0000000000000000  0.5000000000000000   F   F   F
 -0.0000000020970840  0.8749999907194433  0.6044413626094722   T   T   T
  0.7499999949938196 -0.0000000083732764  0.6107187984440405   T   T   T
  0.7500000186665425  0.8749999963675555  0.7203843691034203   T   T   T
 -0.0000000148652498 -0.0000000010287501  0.7085023786625845   T   T   T
  0.7500000000000000  0.1250000000000000  0.2867151425091663   F   F   F
  0.0000000000000000  0.2500000000000000  0.2867151425091663   F   F   F
  0.0000000000000000  0.1250000000000000  0.3933575712545831   F   F   F
  0.7500000000000000  0.2500000000000000  0.3933575712545831   F   F   F
  0.7500000000000000  0.1250000000000000  0.5000000000000000   F   F   F
  0.0000000000000000  0.2500000000000000  0.5000000000000000   F   F   F
  0.0000000082010785  0.1249999928664159  0.6044413676653340   T   T   T
  0.7500000523508815  0.2499999948879250  0.6107188014250491   T   T   T
  0.7500000488163958  0.1250000369198911  0.7203843734368522   T   T   T
  0.0000000321174163  0.2500000043053514  0.7085023842428898   T   T   T
  0.7500000000000000  0.3750000000000000  0.2867151425091663   F   F   F
  0.0000000000000000  0.5000000000000000  0.2867151425091663   F   F   F
  0.0000000000000000  0.3750000000000000  0.3933575712545831   F   F   F
  0.7500000000000000  0.5000000000000000  0.3933575712545831   F   F   F
  0.7500000000000000  0.3750000000000000  0.5000000000000000   F   F   F
  0.0000000000000000  0.5000000000000000  0.5000000000000000   F   F   F
  0.0000000303447477  0.3749999844389778  0.6044413708576626   T   T   T
  0.7500000109737974  0.4999999904989126  0.6107187928843975   T   T   T
  0.7499999440463594  0.3750000114499291  0.7203843805704794   T   T   T
 -0.0000000969480111  0.4999999985246266  0.7085023792395156   T   T   T
  0.2500000000000000  0.6250000000000000  0.2867151425091663   F   F   F
  0.5000000000000000  0.7500000000000000  0.2867151425091663   F   F   F
  0.5000000000000000  0.6250000000000000  0.3933575712545831   F   F   F
  0.2500000000000000  0.7500000000000000  0.3933575712545831   F   F   F
  0.2500000000000000  0.6250000000000000  0.5000000000000000   F   F   F
  0.5000000000000000  0.7500000000000000  0.5000000000000000   F   F   F
  0.5000000121978035  0.6250000190900411  0.6044413692571287   T   T   T
  0.2499999988946014  0.7500000277826712  0.6107187857783681   T   T   T
  0.2499999732931905  0.6249999977177141  0.7203843381543876   T   T   T
  0.4999999752500535  0.7500000114454104  0.7085023831833525   T   T   T
  0.2500000000000000  0.8750000000000000  0.2867151425091663   F   F   F
  0.5000000000000000  0.0000000000000000  0.2867151425091663   F   F   F
  0.5000000000000000  0.8750000000000000  0.3933575712545831   F   F   F
  0.2500000000000000  0.0000000000000000  0.3933575712545831   F   F   F
  0.2500000000000000  0.8750000000000000  0.5000000000000000   F   F   F
  0.5000000000000000  0.0000000000000000  0.5000000000000000   F   F   F
  0.4999999790513413  0.8750000038916893  0.6044413760087349   T   T   T
  0.2499999859353451  0.0000000416196173  0.6107187932218622   T   T   T
  0.2500000183889496  0.8750000089381579  0.7203843498645218   T   T   T
  0.5000000773664492  0.0000000059432266  0.7085023902875246   T   T   T
  0.2500000000000000  0.1250000000000000  0.2867151425091663   F   F   F
  0.5000000000000000  0.2500000000000000  0.2867151425091663   F   F   F
  0.5000000000000000  0.1250000000000000  0.3933575712545831   F   F   F
  0.2500000000000000  0.2500000000000000  0.3933575712545831   F   F   F
  0.2500000000000000  0.1250000000000000  0.5000000000000000   F   F   F
  0.5000000000000000  0.2500000000000000  0.5000000000000000   F   F   F
  0.5000000454776145  0.1249999830055354  0.6044413649783148   T   T   T
  0.2500000457079598  0.2500000059695708  0.6107187812023704   T   T   T
  0.2500000458435384  0.1249999827113940  0.7203843399253905   T   T   T
  0.4999999768490637  0.2499999984826691  0.7085023918763623   T   T   T
  0.2500000000000000  0.3750000000000000  0.2867151425091663   F   F   F
  0.5000000000000000  0.5000000000000000  0.2867151425091663   F   F   F
  0.5000000000000000  0.3750000000000000  0.3933575712545831   F   F   F
  0.2500000000000000  0.5000000000000000  0.3933575712545831   F   F   F
  0.2500000000000000  0.3750000000000000  0.5000000000000000   F   F   F
  0.5000000000000000  0.5000000000000000  0.5000000000000000   F   F   F
  0.5000000486090884  0.3749999867638040  0.6044413728212903   T   T   T
  0.2500000109543924  0.5000000173100524  0.6107187837165511   T   T   T
  0.2499999566753473  0.3750000262869443  0.7203843484686264   T   T   T
  0.4999999731901338  0.5000000013498882  0.7085023806095634   T   T   T
  0.7500000000000000  0.7500000000000000  0.2449461436232596   F   F   F
  0.7500000000000000  0.7500000000000000  0.3284841413950730   F   F   F
  0.0979183411736173  0.6250000000000000  0.2867151425091663   F   F   F
  0.9020816588263898  0.6250000000000000  0.2867151425091663   F   F   F
  0.0000000000000000  0.7500000000000000  0.3515885723686765   F   F   F
  0.0000000000000000  0.7500000000000000  0.4351265701404898   F   F   F
  0.8479183411736173  0.6250000000000000  0.3933575712545831   F   F   F
  0.1520816588263898  0.6250000000000000  0.3933575712545831   F   F   F
  0.7500000000000000  0.7500000000000000  0.4582310011140933   F   F   F
  0.7500000000000000  0.7500000000000000  0.5417689988859067   F   F   F
  0.0979183411736173  0.6250000000000000  0.5000000000000000   F   F   F
  0.9020816588263898  0.6250000000000000  0.5000000000000000   F   F   F
 -0.0000000183489222  0.7499999863448285  0.5654482808803715   T   T   T
  0.0000000262171837  0.7500000069521734  0.6491576746059345   T   T   T
  0.8500992451269842  0.6250000066186999  0.6072163275177204   T   T   T
  0.1499007389601133  0.6250000023019059  0.6072163018492640   T   T   T
  0.7499999817200712  0.7500000018772404  0.6717687015690241   T   T   T
  0.7499999941542502  0.7500000218093010  0.7556569010787942   T   T   T
  0.0939280462816488  0.6249999583244892  0.7189530690403538   T   T   T
  0.9060719225498692  0.6250000284554991  0.7189530721120659   T   T   T
  0.7500000000000000  0.0000000000000000  0.2449461436232596   F   F   F
  0.7500000000000000  0.0000000000000000  0.3284841413950730   F   F   F
  0.0979183411736173  0.8750000000000000  0.2867151425091663   F   F   F
  0.9020816588263898  0.8750000000000000  0.2867151425091663   F   F   F
  0.0000000000000000  0.0000000000000000  0.3515885723686765   F   F   F
  0.0000000000000000  0.0000000000000000  0.4351265701404898   F   F   F
  0.8479183411736173  0.8750000000000000  0.3933575712545831   F   F   F
  0.1520816588263898  0.8750000000000000  0.3933575712545831   F   F   F
  0.7500000000000000  0.0000000000000000  0.4582310011140933   F   F   F
  0.7500000000000000  0.0000000000000000  0.5417689988859067   F   F   F
  0.0979183411736173  0.8750000000000000  0.5000000000000000   F   F   F
  0.9020816588263898  0.8750000000000000  0.5000000000000000   F   F   F
 -0.0000000099666263 -0.0000000114585659  0.5654482731696139   T   T   T
  0.0000000209604876 -0.0000000067992486  0.6491576635435040   T   T   T
  0.8500992416320823  0.8749999967663588  0.6072163209512287   T   T   T
  0.1499007453221212  0.8750000049485982  0.6072162924072257   T   T   T
  0.7499999915710887 -0.0000000115839826  0.6717686996230766   T   T   T
  0.7500000025731811  0.0000000059907976  0.7556568983214429   T   T   T
  0.0939280907005115  0.8750000089073288  0.7189530577952200   T   T   T
  0.9060719553147810  0.8750000021722859  0.7189530675749565   T   T   T
  0.7500000000000000  0.2500000000000000  0.2449461436232596   F   F   F
  0.7500000000000000  0.2500000000000000  0.3284841413950730   F   F   F
  0.0979183411736173  0.1250000000000000  0.2867151425091663   F   F   F
  0.9020816588263898  0.1250000000000000  0.2867151425091663   F   F   F
  0.0000000000000000  0.2500000000000000  0.3515885723686765   F   F   F
  0.0000000000000000  0.2500000000000000  0.4351265701404898   F   F   F
  0.8479183411736173  0.1250000000000000  0.3933575712545831   F   F   F
  0.1520816588263898  0.1250000000000000  0.3933575712545831   F   F   F
  0.7500000000000000  0.2500000000000000  0.4582310011140933   F   F   F
  0.7500000000000000  0.2500000000000000  0.5417689988859067   F   F   F
  0.0979183411736173  0.1250000000000000  0.5000000000000000   F   F   F
  0.9020816588263898  0.1250000000000000  0.5000000000000000   F   F   F
 -0.0000000153139220  0.2500000097083909  0.5654482758966073   T   T   T
  0.0000000250946303  0.2499999910522349  0.6491576677659874   T   T   T
  0.8500992462891820  0.1249999886393316  0.6072163229426094   T   T   T
  0.1499007414083303  0.1249999979011658  0.6072162915480441   T   T   T
  0.7499999884526106  0.2499999853116519  0.6717687056376148   T   T   T
  0.7499999966098050  0.2499999964581200  0.7556568999084711   T   T   T
  0.0939280780537494  0.1249999888538005  0.7189530468381060   T   T   T
  0.9060719514147858  0.1249999945910337  0.7189530548230570   T   T   T
  0.7500000000000000  0.5000000000000000  0.2449461436232596   F   F   F
  0.7500000000000000  0.5000000000000000  0.3284841413950730   F   F   F
  0.0979183411736173  0.3750000000000000  0.2867151425091663   F   F   F
  0.9020816588263898  0.3750000000000000  0.2867151425091663   F   F   F
  0.0000000000000000  0.5000000000000000  0.3515885723686765   F   F   F
  0.0000000000000000  0.5000000000000000  0.4351265701404898   F   F   F
  0.8479183411736173  0.3750000000000000  0.3933575712545831   F   F   F
  0.1520816588263898  0.3750000000000000  0.3933575712545831   F   F   F
  0.7500000000000000  0.5000000000000000  0.4582310011140933   F   F   F
  0.7500000000000000  0.5000000000000000  0.5417689988859067   F   F   F
  0.0979183411736173  0.3750000000000000  0.5000000000000000   F   F   F
  0.9020816588263898  0.3750000000000000  0.5000000000000000   F   F   F
 -0.0000000124350540  0.5000000147228790  0.5654482821779856   T   T   T
 -0.0000000356790308  0.4999999963776437  0.6491576814279815   T   T   T
  0.8500992406252401  0.3749999929759745  0.6072163286851879   T   T   T
  0.1499007397696441  0.3750000064523573  0.6072162982981391   T   T   T
  0.7499999838450576  0.5000000010412096  0.6717687095377852   T   T   T
  0.7500000007379162  0.5000000161369065  0.7556568992482174   T   T   T
  0.0939280454132534  0.3750000195774346  0.7189530575323180   T   T   T
  0.9060719188393354  0.3749999570887880  0.7189530616254346   T   T   T
  0.2500000000000000  0.7500000000000000  0.2449461436232596   F   F   F
  0.2500000000000000  0.7500000000000000  0.3284841413950730   F   F   F
  0.5979183411736173  0.6250000000000000  0.2867151425091663   F   F   F
  0.4020816588263898  0.6250000000000000  0.2867151425091663   F   F   F
  0.5000000000000000  0.7500000000000000  0.3515885723686765   F   F   F
  0.5000000000000000  0.7500000000000000  0.4351265701404898   F   F   F
  0.3479183411736173  0.6250000000000000  0.3933575712545831   F   F   F
  0.6520816588263898  0.6250000000000000  0.3933575712545831   F   F   F
  0.2500000000000000  0.7500000000000000  0.4582310011140933   F   F   F
  0.2500000000000000  0.7500000000000000  0.5417689988859067   F   F   F
  0.5979183411736173  0.6250000000000000  0.5000000000000000   F   F   F
  0.4020816588263898  0.6250000000000000  0.5000000000000000   F   F   F
  0.4999999952905851  0.7499999938167333  0.5654482826947048   T   T   T
  0.4999999885701222  0.7500000102311114  0.6491576813817543   T   T   T
  0.3500992407304153  0.6250000008607737  0.6072163153886972   T   T   T
  0.6499007493552813  0.6250000004814553  0.6072163155212099   T   T   T
  0.2499999804938408  0.7500000033165326  0.6717686745197143   T   T   T
  0.2499999915789242  0.7500000095151427  0.7556568630197574   T   T   T
  0.5939280353665038  0.6250000101901678  0.7189530920397205   T   T   T
  0.4060719049519125  0.6250000113900009  0.7189530734649827   T   T   T
  0.2500000000000000  0.0000000000000000  0.2449461436232596   F   F   F
  0.2500000000000000  0.0000000000000000  0.3284841413950730   F   F   F
  0.5979183411736173  0.8750000000000000  0.2867151425091663   F   F   F
  0.4020816588263898  0.8750000000000000  0.2867151425091663   F   F   F
  0.5000000000000000  0.0000000000000000  0.3515885723686765   F   F   F
  0.5000000000000000  0.0000000000000000  0.4351265701404898   F   F   F
  0.3479183411736173  0.8750000000000000  0.3933575712545831   F   F   F
  0.6520816588263898  0.8750000000000000  0.3933575712545831   F   F   F
  0.2500000000000000  0.0000000000000000  0.4582310011140933   F   F   F
  0.2500000000000000  0.0000000000000000  0.5417689988859067   F   F   F
  0.5979183411736173  0.8750000000000000  0.5000000000000000   F   F   F
  0.4020816588263898  0.8750000000000000  0.5000000000000000   F   F   F
  0.4999999900766423 -0.0000000047328599  0.5654482797070194   T   T   T
  0.5000000152480083  0.0000000008832456  0.6491576689096030   T   T   T
  0.3500992494397842  0.8750000086827370  0.6072163107500905   T   T   T
  0.6499007559347942  0.8749999909898295  0.6072163072802942   T   T   T
  0.2499999931972058 -0.0000000048329530  0.6717686751174213   T   T   T
  0.2499999906952136  0.0000000108659345  0.7556568672281430   T   T   T
  0.5939280639451511  0.8750000014324610  0.7189530765176815   T   T   T
  0.4060719316357760  0.8750000245207343  0.7189530644388312   T   T   T
  0.2500000000000000  0.2500000000000000  0.2449461436232596   F   F   F
  0.2500000000000000  0.2500000000000000  0.3284841413950730   F   F   F
  0.5979183411736173  0.1250000000000000  0.2867151425091663   F   F   F
  0.4020816588263898  0.1250000000000000  0.2867151425091663   F   F   F
  0.5000000000000000  0.2500000000000000  0.3515885723686765   F   F   F
  0.5000000000000000  0.2500000000000000  0.4351265701404898   F   F   F
  0.3479183411736173  0.1250000000000000  0.3933575712545831   F   F   F
  0.6520816588263898  0.1250000000000000  0.3933575712545831   F   F   F
  0.2500000000000000  0.2500000000000000  0.4582310011140933   F   F   F
  0.2500000000000000  0.2500000000000000  0.5417689988859067   F   F   F
  0.5979183411736173  0.1250000000000000  0.5000000000000000   F   F   F
  0.4020816588263898  0.1250000000000000  0.5000000000000000   F   F   F
  0.4999999950820303  0.2500000185529229  0.5654482872243356   T   T   T
  0.4999999827278900  0.2499999993410615  0.6491576671646471   T   T   T
  0.3500992433087221  0.1249999965992626  0.6072163101546378   T   T   T
  0.6499007553683556  0.1249999984803385  0.6072163091718188   T   T   T
  0.2499999861309785  0.2499999940025250  0.6717686739323783   T   T   T
  0.2499999802750444  0.2499999984569120  0.7556568668049557   T   T   T
  0.5939280599647253  0.1250000146274207  0.7189530621609431   T   T   T
  0.4060719317625202  0.1249999774654263  0.7189530631784110   T   T   T
  0.2500000000000000  0.5000000000000000  0.2449461436232596   F   F   F
  0.2500000000000000  0.5000000000000000  0.3284841413950730   F   F   F
  0.5979183411736173  0.3750000000000000  0.2867151425091663   F   F   F
  0.4020816588263898  0.3750000000000000  0.2867151425091663   F   F   F
  0.5000000000000000  0.5000000000000000  0.3515885723686765   F   F   F
  0.5000000000000000  0.5000000000000000  0.4351265701404898   F   F   F
  0.3479183411736173  0.3750000000000000  0.3933575712545831   F   F   F
  0.6520816588263898  0.3750000000000000  0.3933575712545831   F   F   F
  0.2500000000000000  0.5000000000000000  0.4582310011140933   F   F   F
  0.2500000000000000  0.5000000000000000  0.5417689988859067   F   F   F
  0.5979183411736173  0.3750000000000000  0.5000000000000000   F   F   F
  0.4020816588263898  0.3750000000000000  0.5000000000000000   F   F   F
  0.4999999902239122  0.5000000070170538  0.5654482905113012   T   T   T
  0.4999999919122426  0.5000000033371143  0.6491576839179133   T   T   T
  0.3500992388434878  0.3750000182274614  0.6072163146154431   T   T   T
  0.6499007464016670  0.3749999912757604  0.6072163187635352   T   T   T
  0.2499999791450636  0.5000000057523163  0.6717686761726928   T   T   T
  0.2499999883669554  0.4999999883804536  0.7556568622256186   T   T   T
  0.5939280295541468  0.3749999951315531  0.7189530786831015   T   T   T
  0.4060718915283076  0.3749999958361055  0.7189530619770164   T   T   T

  0.00000000E+00  0.00000000E+00  0.00000000E+00
  0.00000000E+00  0.00000000E+00  0.00000000E+00
  0.00000000E+00  0.00000000E+00  0.00000000E+00
  0.00000000E+00  0.00000000E+00  0.00000000E+00
  0.00000000E+00  0.00000000E+00  0.00000000E+00
  0.00000000E+00  0.00000000E+00  0.00000000E+00
  0.00000000E+00  0.00000000E+00  0.00000000E+00
  0.00000000E+00  0.00000000E+00  0.00000000E+00
  0.00000000E+00  0.00000000E+00  0.00000000E+00
  0.00000000E+00  0.00000000E+00  0.00000000E+00
  0.00000000E+00  0.00000000E+00  0.00000000E+00
  0.00000000E+00  0.00000000E+00  0.00000000E+00
  0.00000000E+00  0.00000000E+00  0.00000000E+00
  0.00000000E+00  0.00000000E+00  0.00000000E+00
  0.00000000E+00  0.00000000E+00  0.00000000E+00
  0.00000000E+00  0.00000000E+00  0.00000000E+00
  0.00000000E+00  0.00000000E+00  0.00000000E+00
  0.00000000E+00  0.00000000E+00  0.00000000E+00
  0.00000000E+00  0.00000000E+00  0.00000000E+00
  0.00000000E+00  0.00000000E+00  0.00000000E+00
  0.00000000E+00  0.00000000E+00  0.00000000E+00
  0.00000000E+00  0.00000000E+00  0.00000000E+00
  0.00000000E+00  0.00000000E+00  0.00000000E+00
  0.00000000E+00  0.00000000E+00  0.00000000E+00
  0.00000000E+00  0.00000000E+00  0.00000000E+00
  0.00000000E+00  0.00000000E+00  0.00000000E+00
  0.00000000E+00  0.00000000E+00  0.00000000E+00
  0.00000000E+00  0.00000000E+00  0.00000000E+00
  0.00000000E+00  0.00000000E+00  0.00000000E+00
  0.00000000E+00  0.00000000E+00  0.00000000E+00
  0.00000000E+00  0.00000000E+00  0.00000000E+00
  0.00000000E+00  0.00000000E+00  0.00000000E+00
  0.00000000E+00  0.00000000E+00  0.00000000E+00
  0.00000000E+00  0.00000000E+00  0.00000000E+00
  0.00000000E+00  0.00000000E+00  0.00000000E+00
  0.00000000E+00  0.00000000E+00  0.00000000E+00
  0.00000000E+00  0.00000000E+00  0.00000000E+00
  0.00000000E+00  0.00000000E+00  0.00000000E+00
  0.00000000E+00  0.00000000E+00  0.00000000E+00
  0.00000000E+00  0.00000000E+00  0.00000000E+00
  0.00000000E+00  0.00000000E+00  0.00000000E+00
  0.00000000E+00  0.00000000E+00  0.00000000E+00
  0.00000000E+00  0.00000000E+00  0.00000000E+00
  0.00000000E+00  0.00000000E+00  0.00000000E+00
  0.00000000E+00  0.00000000E+00  0.00000000E+00
  0.00000000E+00  0.00000000E+00  0.00000000E+00
  0.00000000E+00  0.00000000E+00  0.00000000E+00
  0.00000000E+00  0.00000000E+00  0.00000000E+00
  0.00000000E+00  0.00000000E+00  0.00000000E+00
  0.00000000E+00  0.00000000E+00  0.00000000E+00
  0.00000000E+00  0.00000000E+00  0.00000000E+00
  0.00000000E+00  0.00000000E+00  0.00000000E+00
  0.00000000E+00  0.00000000E+00  0.00000000E+00
  0.00000000E+00  0.00000000E+00  0.00000000E+00
  0.00000000E+00  0.00000000E+00  0.00000000E+00
  0.00000000E+00  0.00000000E+00  0.00000000E+00
  0.00000000E+00  0.00000000E+00  0.00000000E+00
  0.00000000E+00  0.00000000E+00  0.00000000E+00
  0.00000000E+00  0.00000000E+00  0.00000000E+00
  0.00000000E+00  0.00000000E+00  0.00000000E+00
  0.00000000E+00  0.00000000E+00  0.00000000E+00
  0.00000000E+00  0.00000000E+00  0.00000000E+00
  0.00000000E+00  0.00000000E+00  0.00000000E+00
  0.00000000E+00  0.00000000E+00  0.00000000E+00
  0.00000000E+00  0.00000000E+00  0.00000000E+00
  0.00000000E+00  0.00000000E+00  0.00000000E+00
  0.00000000E+00  0.00000000E+00  0.00000000E+00
  0.00000000E+00  0.00000000E+00  0.00000000E+00
  0.00000000E+00  0.00000000E+00  0.00000000E+00
  0.00000000E+00  0.00000000E+00  0.00000000E+00
  0.00000000E+00  0.00000000E+00  0.00000000E+00
  0.00000000E+00  0.00000000E+00  0.00000000E+00
  0.00000000E+00  0.00000000E+00  0.00000000E+00
  0.00000000E+00  0.00000000E+00  0.00000000E+00
  0.00000000E+00  0.00000000E+00  0.00000000E+00
  0.00000000E+00  0.00000000E+00  0.00000000E+00
  0.00000000E+00  0.00000000E+00  0.00000000E+00
  0.00000000E+00  0.00000000E+00  0.00000000E+00
  0.00000000E+00  0.00000000E+00  0.00000000E+00
  0.00000000E+00  0.00000000E+00  0.00000000E+00
  0.00000000E+00  0.00000000E+00  0.00000000E+00
  0.00000000E+00  0.00000000E+00  0.00000000E+00
  0.00000000E+00  0.00000000E+00  0.00000000E+00
  0.00000000E+00  0.00000000E+00  0.00000000E+00
  0.00000000E+00  0.00000000E+00  0.00000000E+00
  0.00000000E+00  0.00000000E+00  0.00000000E+00
  0.00000000E+00  0.00000000E+00  0.00000000E+00
  0.00000000E+00  0.00000000E+00  0.00000000E+00
  0.00000000E+00  0.00000000E+00  0.00000000E+00
  0.00000000E+00  0.00000000E+00  0.00000000E+00
  0.00000000E+00  0.00000000E+00  0.00000000E+00
  0.00000000E+00  0.00000000E+00  0.00000000E+00
  0.00000000E+00  0.00000000E+00  0.00000000E+00
  0.00000000E+00  0.00000000E+00  0.00000000E+00
  0.00000000E+00  0.00000000E+00  0.00000000E+00
  0.00000000E+00  0.00000000E+00  0.00000000E+00
  0.00000000E+00  0.00000000E+00  0.00000000E+00
  0.00000000E+00  0.00000000E+00  0.00000000E+00
  0.00000000E+00  0.00000000E+00  0.00000000E+00
  0.00000000E+00  0.00000000E+00  0.00000000E+00
  0.00000000E+00  0.00000000E+00  0.00000000E+00
  0.00000000E+00  0.00000000E+00  0.00000000E+00
  0.00000000E+00  0.00000000E+00  0.00000000E+00
  0.00000000E+00  0.00000000E+00  0.00000000E+00
  0.00000000E+00  0.00000000E+00  0.00000000E+00
  0.00000000E+00  0.00000000E+00  0.00000000E+00
  0.00000000E+00  0.00000000E+00  0.00000000E+00
  0.00000000E+00  0.00000000E+00  0.00000000E+00
  0.00000000E+00  0.00000000E+00  0.00000000E+00
  0.00000000E+00  0.00000000E+00  0.00000000E+00
  0.00000000E+00  0.00000000E+00  0.00000000E+00
  0.00000000E+00  0.00000000E+00  0.00000000E+00
  0.00000000E+00  0.00000000E+00  0.00000000E+00
  0.00000000E+00  0.00000000E+00  0.00000000E+00
  0.00000000E+00  0.00000000E+00  0.00000000E+00
  0.00000000E+00  0.00000000E+00  0.00000000E+00
  0.00000000E+00  0.00000000E+00  0.00000000E+00
  0.00000000E+00  0.00000000E+00  0.00000000E+00
  0.00000000E+00  0.00000000E+00  0.00000000E+00
  0.00000000E+00  0.00000000E+00  0.00000000E+00
  0.00000000E+00  0.00000000E+00  0.00000000E+00
  0.00000000E+00  0.00000000E+00  0.00000000E+00
  0.00000000E+00  0.00000000E+00  0.00000000E+00
  0.00000000E+00  0.00000000E+00  0.00000000E+00
  0.00000000E+00  0.00000000E+00  0.00000000E+00
  0.00000000E+00  0.00000000E+00  0.00000000E+00
  0.00000000E+00  0.00000000E+00  0.00000000E+00
  0.00000000E+00  0.00000000E+00  0.00000000E+00
  0.00000000E+00  0.00000000E+00  0.00000000E+00
  0.00000000E+00  0.00000000E+00  0.00000000E+00
  0.00000000E+00  0.00000000E+00  0.00000000E+00
  0.00000000E+00  0.00000000E+00  0.00000000E+00
  0.00000000E+00  0.00000000E+00  0.00000000E+00
  0.00000000E+00  0.00000000E+00  0.00000000E+00
  0.00000000E+00  0.00000000E+00  0.00000000E+00
  0.00000000E+00  0.00000000E+00  0.00000000E+00
  0.00000000E+00  0.00000000E+00  0.00000000E+00
  0.00000000E+00  0.00000000E+00  0.00000000E+00
  0.00000000E+00  0.00000000E+00  0.00000000E+00
  0.00000000E+00  0.00000000E+00  0.00000000E+00
  0.00000000E+00  0.00000000E+00  0.00000000E+00
  0.00000000E+00  0.00000000E+00  0.00000000E+00
  0.00000000E+00  0.00000000E+00  0.00000000E+00
  0.00000000E+00  0.00000000E+00  0.00000000E+00
  0.00000000E+00  0.00000000E+00  0.00000000E+00
  0.00000000E+00  0.00000000E+00  0.00000000E+00
  0.00000000E+00  0.00000000E+00  0.00000000E+00
  0.00000000E+00  0.00000000E+00  0.00000000E+00
  0.00000000E+00  0.00000000E+00  0.00000000E+00
  0.00000000E+00  0.00000000E+00  0.00000000E+00
  0.00000000E+00  0.00000000E+00  0.00000000E+00
  0.00000000E+00  0.00000000E+00  0.00000000E+00
  0.00000000E+00  0.00000000E+00  0.00000000E+00
  0.00000000E+00  0.00000000E+00  0.00000000E+00
  0.00000000E+00  0.00000000E+00  0.00000000E+00
  0.00000000E+00  0.00000000E+00  0.00000000E+00
  0.00000000E+00  0.00000000E+00  0.00000000E+00
  0.00000000E+00  0.00000000E+00  0.00000000E+00
  0.00000000E+00  0.00000000E+00  0.00000000E+00
  0.00000000E+00  0.00000000E+00  0.00000000E+00
  0.00000000E+00  0.00000000E+00  0.00000000E+00
  0.00000000E+00  0.00000000E+00  0.00000000E+00
  0.00000000E+00  0.00000000E+00  0.00000000E+00
  0.00000000E+00  0.00000000E+00  0.00000000E+00
  0.00000000E+00  0.00000000E+00  0.00000000E+00
  0.00000000E+00  0.00000000E+00  0.00000000E+00
  0.00000000E+00  0.00000000E+00  0.00000000E+00
  0.00000000E+00  0.00000000E+00  0.00000000E+00
  0.00000000E+00  0.00000000E+00  0.00000000E+00
  0.00000000E+00  0.00000000E+00  0.00000000E+00
  0.00000000E+00  0.00000000E+00  0.00000000E+00
  0.00000000E+00  0.00000000E+00  0.00000000E+00
  0.00000000E+00  0.00000000E+00  0.00000000E+00
  0.00000000E+00  0.00000000E+00  0.00000000E+00
  0.00000000E+00  0.00000000E+00  0.00000000E+00
  0.00000000E+00  0.00000000E+00  0.00000000E+00
  0.00000000E+00  0.00000000E+00  0.00000000E+00
  0.00000000E+00  0.00000000E+00  0.00000000E+00
  0.00000000E+00  0.00000000E+00  0.00000000E+00
  0.00000000E+00  0.00000000E+00  0.00000000E+00
  0.00000000E+00  0.00000000E+00  0.00000000E+00
  0.00000000E+00  0.00000000E+00  0.00000000E+00
  0.00000000E+00  0.00000000E+00  0.00000000E+00
  0.00000000E+00  0.00000000E+00  0.00000000E+00
  0.00000000E+00  0.00000000E+00  0.00000000E+00
  0.00000000E+00  0.00000000E+00  0.00000000E+00
  0.00000000E+00  0.00000000E+00  0.00000000E+00
  0.00000000E+00  0.00000000E+00  0.00000000E+00
  0.00000000E+00  0.00000000E+00  0.00000000E+00
  0.00000000E+00  0.00000000E+00  0.00000000E+00
  0.00000000E+00  0.00000000E+00  0.00000000E+00
  0.00000000E+00  0.00000000E+00  0.00000000E+00
  0.00000000E+00  0.00000000E+00  0.00000000E+00
  0.00000000E+00  0.00000000E+00  0.00000000E+00
  0.00000000E+00  0.00000000E+00  0.00000000E+00
  0.00000000E+00  0.00000000E+00  0.00000000E+00
  0.00000000E+00  0.00000000E+00  0.00000000E+00
  0.00000000E+00  0.00000000E+00  0.00000000E+00
  0.00000000E+00  0.00000000E+00  0.00000000E+00
  0.00000000E+00  0.00000000E+00  0.00000000E+00
  0.00000000E+00  0.00000000E+00  0.00000000E+00
  0.00000000E+00  0.00000000E+00  0.00000000E+00
  0.00000000E+00  0.00000000E+00  0.00000000E+00
  0.00000000E+00  0.00000000E+00  0.00000000E+00
  0.00000000E+00  0.00000000E+00  0.00000000E+00
  0.00000000E+00  0.00000000E+00  0.00000000E+00
  0.00000000E+00  0.00000000E+00  0.00000000E+00
  0.00000000E+00  0.00000000E+00  0.00000000E+00
  0.00000000E+00  0.00000000E+00  0.00000000E+00
  0.00000000E+00  0.00000000E+00  0.00000000E+00
  0.00000000E+00  0.00000000E+00  0.00000000E+00
  0.00000000E+00  0.00000000E+00  0.00000000E+00
  0.00000000E+00  0.00000000E+00  0.00000000E+00
  0.00000000E+00  0.00000000E+00  0.00000000E+00
  0.00000000E+00  0.00000000E+00  0.00000000E+00
  0.00000000E+00  0.00000000E+00  0.00000000E+00
  0.00000000E+00  0.00000000E+00  0.00000000E+00
  0.00000000E+00  0.00000000E+00  0.00000000E+00
  0.00000000E+00  0.00000000E+00  0.00000000E+00
  0.00000000E+00  0.00000000E+00  0.00000000E+00
  0.00000000E+00  0.00000000E+00  0.00000000E+00
  0.00000000E+00  0.00000000E+00  0.00000000E+00
  0.00000000E+00  0.00000000E+00  0.00000000E+00
  0.00000000E+00  0.00000000E+00  0.00000000E+00
  0.00000000E+00  0.00000000E+00  0.00000000E+00
  0.00000000E+00  0.00000000E+00  0.00000000E+00
  0.00000000E+00  0.00000000E+00  0.00000000E+00
  0.00000000E+00  0.00000000E+00  0.00000000E+00
  0.00000000E+00  0.00000000E+00  0.00000000E+00
  0.00000000E+00  0.00000000E+00  0.00000000E+00
  0.00000000E+00  0.00000000E+00  0.00000000E+00
  0.00000000E+00  0.00000000E+00  0.00000000E+00
  0.00000000E+00  0.00000000E+00  0.00000000E+00
  0.00000000E+00  0.00000000E+00  0.00000000E+00
  0.00000000E+00  0.00000000E+00  0.00000000E+00
  0.00000000E+00  0.00000000E+00  0.00000000E+00
  0.00000000E+00  0.00000000E+00  0.00000000E+00
  0.00000000E+00  0.00000000E+00  0.00000000E+00
  0.00000000E+00  0.00000000E+00  0.00000000E+00
  0.00000000E+00  0.00000000E+00  0.00000000E+00
